*SPEF "ieee 1481-1999"
*DESIGN "user_project_wrapper"
*DATE "11:11:11 Fri 11 11, 1111"
*VENDOR "OpenRCX"
*PROGRAM "Parallel Extraction"
*VERSION "1.0"
*DESIGN_FLOW "NAME_SCOPE LOCAL" "PIN_CAP NONE"
*DIVIDER /
*DELIMITER :
*BUS_DELIMITER []
*T_UNIT 1 NS
*C_UNIT 1 PF
*R_UNIT 1 OHM
*L_UNIT 1 HENRY

*NAME_MAP
*1 analog_io[0]
*2 analog_io[10]
*3 analog_io[11]
*4 analog_io[12]
*5 analog_io[13]
*6 analog_io[14]
*7 analog_io[15]
*8 analog_io[16]
*9 analog_io[17]
*10 analog_io[18]
*11 analog_io[19]
*12 analog_io[1]
*13 analog_io[20]
*14 analog_io[21]
*15 analog_io[22]
*16 analog_io[23]
*17 analog_io[24]
*18 analog_io[25]
*19 analog_io[26]
*20 analog_io[27]
*21 analog_io[28]
*22 analog_io[2]
*23 analog_io[3]
*24 analog_io[4]
*25 analog_io[5]
*26 analog_io[6]
*27 analog_io[7]
*28 analog_io[8]
*29 analog_io[9]
*30 io_in[0]
*31 io_in[10]
*32 io_in[11]
*33 io_in[12]
*34 io_in[13]
*35 io_in[14]
*36 io_in[15]
*37 io_in[16]
*38 io_in[17]
*39 io_in[18]
*40 io_in[19]
*41 io_in[1]
*42 io_in[20]
*43 io_in[21]
*44 io_in[22]
*45 io_in[23]
*46 io_in[24]
*47 io_in[25]
*48 io_in[26]
*49 io_in[27]
*50 io_in[28]
*51 io_in[29]
*52 io_in[2]
*53 io_in[30]
*54 io_in[31]
*55 io_in[32]
*56 io_in[33]
*57 io_in[34]
*58 io_in[35]
*59 io_in[36]
*60 io_in[37]
*61 io_in[3]
*62 io_in[4]
*63 io_in[5]
*64 io_in[6]
*65 io_in[7]
*66 io_in[8]
*67 io_in[9]
*68 la_oenb[0]
*69 la_oenb[10]
*70 la_oenb[11]
*71 la_oenb[12]
*72 la_oenb[13]
*73 la_oenb[14]
*74 la_oenb[15]
*75 la_oenb[16]
*76 la_oenb[17]
*77 la_oenb[18]
*78 la_oenb[19]
*79 la_oenb[1]
*80 la_oenb[20]
*81 la_oenb[21]
*82 la_oenb[22]
*83 la_oenb[23]
*84 la_oenb[24]
*85 la_oenb[25]
*86 la_oenb[26]
*87 la_oenb[27]
*88 la_oenb[28]
*89 la_oenb[29]
*90 la_oenb[2]
*91 la_oenb[30]
*92 la_oenb[31]
*93 la_oenb[32]
*94 la_oenb[33]
*95 la_oenb[34]
*96 la_oenb[35]
*97 la_oenb[36]
*98 la_oenb[37]
*99 la_oenb[3]
*100 la_oenb[4]
*101 la_oenb[5]
*102 la_oenb[6]
*103 la_oenb[7]
*104 la_oenb[8]
*105 la_oenb[9]
*106 io_out[0]
*107 io_out[10]
*108 io_out[11]
*109 io_out[12]
*110 io_out[13]
*111 io_out[14]
*112 io_out[15]
*113 io_out[16]
*114 io_out[17]
*115 io_out[18]
*116 io_out[19]
*117 io_out[1]
*118 io_out[20]
*119 io_out[21]
*120 io_out[22]
*121 io_out[23]
*122 io_out[24]
*123 io_out[25]
*124 io_out[26]
*125 io_out[27]
*126 io_out[28]
*127 io_out[29]
*128 io_out[2]
*129 io_out[30]
*130 io_out[31]
*131 chip_ready_out
*132 io_out[33]
*133 io_out[34]
*134 io_out[35]
*135 io_out[36]
*136 io_out[37]
*137 io_out[3]
*138 io_out[4]
*139 io_out[5]
*140 io_out[6]
*141 io_out[7]
*142 io_out[8]
*143 io_out[9]
*144 la_data_in[0]
*145 la_data_in[100]
*146 la_data_in[101]
*147 la_data_in[102]
*148 la_data_in[103]
*149 la_data_in[104]
*150 la_data_in[105]
*151 la_data_in[106]
*152 la_data_in[107]
*153 la_data_in[108]
*154 la_data_in[109]
*155 la_data_in[10]
*156 la_data_in[110]
*157 la_data_in[111]
*158 la_data_in[112]
*159 la_data_in[113]
*160 la_data_in[114]
*161 la_data_in[115]
*162 la_data_in[116]
*163 la_data_in[117]
*164 la_data_in[118]
*165 la_data_in[119]
*166 la_data_in[11]
*167 la_data_in[120]
*168 la_data_in[121]
*169 la_data_in[122]
*170 la_data_in[123]
*171 la_data_in[124]
*172 la_data_in[125]
*173 la_data_in[126]
*174 la_data_in[127]
*175 la_data_in[12]
*176 la_data_in[13]
*177 la_data_in[14]
*178 la_data_in[15]
*179 la_data_in[16]
*180 la_data_in[17]
*181 la_data_in[18]
*182 la_data_in[19]
*183 la_data_in[1]
*184 la_data_in[20]
*185 la_data_in[21]
*186 la_data_in[22]
*187 la_data_in[23]
*188 la_data_in[24]
*189 la_data_in[25]
*190 la_data_in[26]
*191 la_data_in[27]
*192 la_data_in[28]
*193 la_data_in[29]
*194 la_data_in[2]
*195 la_data_in[30]
*196 la_data_in[31]
*197 la_data_in[32]
*198 la_data_in[33]
*199 la_data_in[34]
*200 la_data_in[35]
*201 la_data_in[36]
*202 la_data_in[37]
*203 la_data_in[38]
*204 la_data_in[39]
*205 la_data_in[3]
*206 la_data_in[40]
*207 la_data_in[41]
*208 la_data_in[42]
*209 la_data_in[43]
*210 la_data_in[44]
*211 la_data_in[45]
*212 la_data_in[46]
*213 la_data_in[47]
*214 la_data_in[48]
*215 la_data_in[49]
*216 la_data_in[4]
*217 la_data_in[50]
*218 la_data_in[51]
*219 la_data_in[52]
*220 la_data_in[53]
*221 la_data_in[54]
*222 la_data_in[55]
*223 la_data_in[56]
*224 la_data_in[57]
*225 la_data_in[58]
*226 la_data_in[59]
*227 la_data_in[5]
*228 la_data_in[60]
*229 la_data_in[61]
*230 la_data_in[62]
*231 la_data_in[63]
*232 la_data_in[64]
*233 la_data_in[65]
*234 la_data_in[66]
*235 la_data_in[67]
*236 la_data_in[68]
*237 la_data_in[69]
*238 la_data_in[6]
*239 la_data_in[70]
*240 la_data_in[71]
*241 la_data_in[72]
*242 la_data_in[73]
*243 la_data_in[74]
*244 la_data_in[75]
*245 la_data_in[76]
*246 la_data_in[77]
*247 la_data_in[78]
*248 la_data_in[79]
*249 la_data_in[7]
*250 la_data_in[80]
*251 la_data_in[81]
*252 la_data_in[82]
*253 la_data_in[83]
*254 la_data_in[84]
*255 la_data_in[85]
*256 la_data_in[86]
*257 la_data_in[87]
*258 la_data_in[88]
*259 la_data_in[89]
*260 la_data_in[8]
*261 la_data_in[90]
*262 la_data_in[91]
*263 la_data_in[92]
*264 la_data_in[93]
*265 la_data_in[94]
*266 la_data_in[95]
*267 la_data_in[96]
*268 la_data_in[97]
*269 la_data_in[98]
*270 la_data_in[99]
*271 la_data_in[9]
*272 la_data_out[10]
*273 la_data_out[11]
*274 la_data_out[12]
*275 la_data_out[13]
*276 la_data_out[14]
*277 la_data_out[15]
*278 la_data_out[16]
*279 la_data_out[17]
*280 la_data_out[18]
*281 la_data_out[19]
*282 la_data_out[20]
*283 la_data_out[21]
*284 la_data_out[22]
*285 la_data_out[23]
*286 la_data_out[24]
*287 la_data_out[25]
*288 la_data_out[26]
*289 la_data_out[27]
*290 la_data_out[28]
*291 la_data_out[29]
*292 la_data_out[30]
*293 la_data_out[31]
*294 la_data_out[32]
*295 la_data_out[33]
*296 la_data_out[34]
*297 la_data_out[35]
*298 la_data_out[36]
*299 la_data_out[37]
*300 la_data_out[38]
*301 la_data_out[39]
*302 la_data_out[40]
*303 la_data_out[41]
*304 la_data_out[42]
*305 la_data_out[43]
*306 la_data_out[44]
*307 la_data_out[45]
*308 la_data_out[46]
*309 la_data_out[47]
*310 la_data_out[48]
*311 la_data_out[49]
*312 la_data_out[50]
*313 la_data_out[51]
*314 la_data_out[52]
*315 la_data_out[53]
*316 la_data_out[54]
*317 la_data_out[55]
*318 la_data_out[56]
*319 la_data_out[57]
*320 la_data_out[58]
*321 la_data_out[59]
*322 la_data_out[5]
*323 la_data_out[60]
*324 la_data_out[61]
*325 la_data_out[62]
*326 la_data_out[63]
*327 la_data_out[64]
*328 la_data_out[65]
*329 la_data_out[66]
*330 la_data_out[67]
*331 la_data_out[68]
*332 la_data_out[69]
*333 la_data_out[6]
*334 la_data_out[70]
*335 la_data_out[71]
*336 la_data_out[72]
*337 la_data_out[73]
*338 la_data_out[74]
*339 la_data_out[75]
*340 la_data_out[76]
*341 la_data_out[77]
*342 la_data_out[78]
*343 la_data_out[79]
*344 la_data_out[7]
*345 la_data_out[80]
*346 la_data_out[81]
*347 la_data_out[82]
*348 la_data_out[83]
*349 la_data_out[84]
*350 la_data_out[85]
*351 la_data_out[86]
*352 la_data_out[87]
*353 la_data_out[88]
*354 la_data_out[89]
*355 la_data_out[8]
*356 la_data_out[90]
*357 la_data_out[91]
*358 la_data_out[92]
*359 la_data_out[93]
*360 la_data_out[94]
*361 la_data_out[95]
*362 la_data_out[96]
*363 la_data_out[97]
*364 la_data_out[9]
*365 la_oenb[100]
*366 la_oenb[101]
*367 la_oenb[102]
*368 la_oenb[103]
*369 la_oenb[104]
*370 la_oenb[105]
*371 la_oenb[106]
*372 la_oenb[107]
*373 la_oenb[108]
*374 la_oenb[109]
*375 la_oenb[110]
*376 la_oenb[111]
*377 la_oenb[112]
*378 la_oenb[113]
*379 la_oenb[114]
*380 la_oenb[115]
*381 la_oenb[116]
*382 la_oenb[117]
*383 la_oenb[118]
*384 la_oenb[119]
*385 la_oenb[120]
*386 la_oenb[121]
*387 la_oenb[122]
*388 la_oenb[123]
*389 la_oenb[124]
*390 la_oenb[125]
*391 la_oenb[126]
*392 la_oenb[127]
*393 la_oenb[38]
*394 la_oenb[39]
*395 la_oenb[40]
*396 la_oenb[41]
*397 la_oenb[42]
*398 la_oenb[43]
*399 la_oenb[44]
*400 la_oenb[45]
*401 la_oenb[46]
*402 la_oenb[47]
*403 la_oenb[48]
*404 la_oenb[49]
*405 la_oenb[50]
*406 la_oenb[51]
*407 la_oenb[52]
*408 la_oenb[53]
*409 la_oenb[54]
*410 la_oenb[55]
*411 la_oenb[56]
*412 la_oenb[57]
*413 la_oenb[58]
*414 la_oenb[59]
*415 la_oenb[60]
*416 la_oenb[61]
*417 la_oenb[62]
*418 la_oenb[63]
*419 la_oenb[64]
*420 la_oenb[65]
*421 la_oenb[66]
*422 la_oenb[67]
*423 la_oenb[68]
*424 la_oenb[69]
*425 la_oenb[70]
*426 la_oenb[71]
*427 la_oenb[72]
*428 la_oenb[73]
*429 la_oenb[74]
*430 la_oenb[75]
*431 la_oenb[76]
*432 la_oenb[77]
*433 la_oenb[78]
*434 la_oenb[79]
*435 la_oenb[80]
*436 la_oenb[81]
*437 la_oenb[82]
*438 la_oenb[83]
*439 la_oenb[84]
*440 la_oenb[85]
*441 la_oenb[86]
*442 la_oenb[87]
*443 la_oenb[88]
*444 la_oenb[89]
*445 la_oenb[90]
*446 la_oenb[91]
*447 la_oenb[92]
*448 la_oenb[93]
*449 la_oenb[94]
*450 la_oenb[95]
*451 la_oenb[96]
*452 la_oenb[97]
*453 la_oenb[98]
*454 la_oenb[99]
*455 user_clock2
*464 wb_clk_i
*465 wb_rst_i
*466 wbs_stb_i
*467 wbs_adr_i[0]
*468 wbs_adr_i[10]
*469 wbs_adr_i[11]
*470 wbs_adr_i[12]
*471 wbs_adr_i[13]
*472 wbs_adr_i[14]
*473 wbs_adr_i[15]
*474 wbs_adr_i[16]
*475 wbs_adr_i[17]
*476 wbs_adr_i[18]
*477 wbs_adr_i[19]
*478 wbs_adr_i[1]
*479 wbs_adr_i[20]
*480 wbs_adr_i[21]
*481 wbs_adr_i[22]
*482 wbs_adr_i[23]
*483 wbs_adr_i[24]
*484 wbs_adr_i[25]
*485 wbs_adr_i[26]
*486 wbs_adr_i[27]
*487 wbs_adr_i[28]
*488 wbs_adr_i[29]
*489 wbs_adr_i[2]
*490 wbs_adr_i[30]
*491 wbs_adr_i[31]
*492 wbs_adr_i[3]
*493 wbs_adr_i[4]
*494 wbs_adr_i[5]
*495 wbs_adr_i[6]
*496 wbs_adr_i[7]
*497 wbs_adr_i[8]
*498 wbs_adr_i[9]
*499 wbs_cyc_i
*500 wbs_dat_i[0]
*501 wbs_dat_i[10]
*502 wbs_dat_i[11]
*503 wbs_dat_i[12]
*504 wbs_dat_i[13]
*505 wbs_dat_i[14]
*506 wbs_dat_i[15]
*507 wbs_dat_i[16]
*508 wbs_dat_i[17]
*509 wbs_dat_i[18]
*510 wbs_dat_i[19]
*511 wbs_dat_i[1]
*512 wbs_dat_i[20]
*513 wbs_dat_i[21]
*514 wbs_dat_i[22]
*515 wbs_dat_i[23]
*516 wbs_dat_i[24]
*517 wbs_dat_i[25]
*518 wbs_dat_i[26]
*519 wbs_dat_i[27]
*520 wbs_dat_i[28]
*521 wbs_dat_i[29]
*522 wbs_dat_i[2]
*523 wbs_dat_i[30]
*524 wbs_dat_i[31]
*525 wbs_dat_i[3]
*526 wbs_dat_i[4]
*527 wbs_dat_i[5]
*528 wbs_dat_i[6]
*529 wbs_dat_i[7]
*530 wbs_dat_i[8]
*531 wbs_dat_i[9]
*532 wbs_sel_i[0]
*533 wbs_sel_i[1]
*534 wbs_sel_i[2]
*535 wbs_sel_i[3]
*536 wbs_we_i
*537 mprj

*PORTS
analog_io[0] I
analog_io[10] I
analog_io[11] I
analog_io[12] I
analog_io[13] I
analog_io[14] I
analog_io[15] I
analog_io[16] I
analog_io[17] I
analog_io[18] I
analog_io[19] I
analog_io[1] I
analog_io[20] I
analog_io[21] I
analog_io[22] I
analog_io[23] I
analog_io[24] I
analog_io[25] I
analog_io[26] I
analog_io[27] I
analog_io[28] I
analog_io[2] I
analog_io[3] I
analog_io[4] I
analog_io[5] I
analog_io[6] I
analog_io[7] I
analog_io[8] I
analog_io[9] I
io_in[0] I
io_in[10] I
io_in[11] I
io_in[12] I
io_in[13] I
io_in[14] I
io_in[15] I
io_in[16] I
io_in[17] I
io_in[18] I
io_in[19] I
io_in[1] I
io_in[20] I
io_in[21] I
io_in[22] I
io_in[23] I
io_in[24] I
io_in[25] I
io_in[26] I
io_in[27] I
io_in[28] I
io_in[29] I
io_in[2] I
io_in[30] I
io_in[31] I
io_in[32] I
io_in[33] I
io_in[34] I
io_in[35] I
io_in[36] I
io_in[37] I
io_in[3] I
io_in[4] I
io_in[5] I
io_in[6] I
io_in[7] I
io_in[8] I
io_in[9] I
io_oeb[0] O
io_oeb[10] O
io_oeb[11] O
io_oeb[12] O
io_oeb[13] O
io_oeb[14] O
io_oeb[15] O
io_oeb[16] O
io_oeb[17] O
io_oeb[18] O
io_oeb[19] O
io_oeb[1] O
io_oeb[20] O
io_oeb[21] O
io_oeb[22] O
io_oeb[23] O
io_oeb[24] O
io_oeb[25] O
io_oeb[26] O
io_oeb[27] O
io_oeb[28] O
io_oeb[29] O
io_oeb[2] O
io_oeb[30] O
io_oeb[31] O
io_oeb[32] O
io_oeb[33] O
io_oeb[34] O
io_oeb[35] O
io_oeb[36] O
io_oeb[37] O
io_oeb[3] O
io_oeb[4] O
io_oeb[5] O
io_oeb[6] O
io_oeb[7] O
io_oeb[8] O
io_oeb[9] O
io_out[0] O
io_out[10] O
io_out[11] O
io_out[12] O
io_out[13] O
io_out[14] O
io_out[15] O
io_out[16] O
io_out[17] O
io_out[18] O
io_out[19] O
io_out[1] O
io_out[20] O
io_out[21] O
io_out[22] O
io_out[23] O
io_out[24] O
io_out[25] O
io_out[26] O
io_out[27] O
io_out[28] O
io_out[29] O
io_out[2] O
io_out[30] O
io_out[31] O
io_out[32] O
io_out[33] O
io_out[34] O
io_out[35] O
io_out[36] O
io_out[37] O
io_out[3] O
io_out[4] O
io_out[5] O
io_out[6] O
io_out[7] O
io_out[8] O
io_out[9] O
la_data_in[0] I
la_data_in[100] I
la_data_in[101] I
la_data_in[102] I
la_data_in[103] I
la_data_in[104] I
la_data_in[105] I
la_data_in[106] I
la_data_in[107] I
la_data_in[108] I
la_data_in[109] I
la_data_in[10] I
la_data_in[110] I
la_data_in[111] I
la_data_in[112] I
la_data_in[113] I
la_data_in[114] I
la_data_in[115] I
la_data_in[116] I
la_data_in[117] I
la_data_in[118] I
la_data_in[119] I
la_data_in[11] I
la_data_in[120] I
la_data_in[121] I
la_data_in[122] I
la_data_in[123] I
la_data_in[124] I
la_data_in[125] I
la_data_in[126] I
la_data_in[127] I
la_data_in[12] I
la_data_in[13] I
la_data_in[14] I
la_data_in[15] I
la_data_in[16] I
la_data_in[17] I
la_data_in[18] I
la_data_in[19] I
la_data_in[1] I
la_data_in[20] I
la_data_in[21] I
la_data_in[22] I
la_data_in[23] I
la_data_in[24] I
la_data_in[25] I
la_data_in[26] I
la_data_in[27] I
la_data_in[28] I
la_data_in[29] I
la_data_in[2] I
la_data_in[30] I
la_data_in[31] I
la_data_in[32] I
la_data_in[33] I
la_data_in[34] I
la_data_in[35] I
la_data_in[36] I
la_data_in[37] I
la_data_in[38] I
la_data_in[39] I
la_data_in[3] I
la_data_in[40] I
la_data_in[41] I
la_data_in[42] I
la_data_in[43] I
la_data_in[44] I
la_data_in[45] I
la_data_in[46] I
la_data_in[47] I
la_data_in[48] I
la_data_in[49] I
la_data_in[4] I
la_data_in[50] I
la_data_in[51] I
la_data_in[52] I
la_data_in[53] I
la_data_in[54] I
la_data_in[55] I
la_data_in[56] I
la_data_in[57] I
la_data_in[58] I
la_data_in[59] I
la_data_in[5] I
la_data_in[60] I
la_data_in[61] I
la_data_in[62] I
la_data_in[63] I
la_data_in[64] I
la_data_in[65] I
la_data_in[66] I
la_data_in[67] I
la_data_in[68] I
la_data_in[69] I
la_data_in[6] I
la_data_in[70] I
la_data_in[71] I
la_data_in[72] I
la_data_in[73] I
la_data_in[74] I
la_data_in[75] I
la_data_in[76] I
la_data_in[77] I
la_data_in[78] I
la_data_in[79] I
la_data_in[7] I
la_data_in[80] I
la_data_in[81] I
la_data_in[82] I
la_data_in[83] I
la_data_in[84] I
la_data_in[85] I
la_data_in[86] I
la_data_in[87] I
la_data_in[88] I
la_data_in[89] I
la_data_in[8] I
la_data_in[90] I
la_data_in[91] I
la_data_in[92] I
la_data_in[93] I
la_data_in[94] I
la_data_in[95] I
la_data_in[96] I
la_data_in[97] I
la_data_in[98] I
la_data_in[99] I
la_data_in[9] I
la_data_out[0] O
la_data_out[100] O
la_data_out[101] O
la_data_out[102] O
la_data_out[103] O
la_data_out[104] O
la_data_out[105] O
la_data_out[106] O
la_data_out[107] O
la_data_out[108] O
la_data_out[109] O
la_data_out[10] O
la_data_out[110] O
la_data_out[111] O
la_data_out[112] O
la_data_out[113] O
la_data_out[114] O
la_data_out[115] O
la_data_out[116] O
la_data_out[117] O
la_data_out[118] O
la_data_out[119] O
la_data_out[11] O
la_data_out[120] O
la_data_out[121] O
la_data_out[122] O
la_data_out[123] O
la_data_out[124] O
la_data_out[125] O
la_data_out[126] O
la_data_out[127] O
la_data_out[12] O
la_data_out[13] O
la_data_out[14] O
la_data_out[15] O
la_data_out[16] O
la_data_out[17] O
la_data_out[18] O
la_data_out[19] O
la_data_out[1] O
la_data_out[20] O
la_data_out[21] O
la_data_out[22] O
la_data_out[23] O
la_data_out[24] O
la_data_out[25] O
la_data_out[26] O
la_data_out[27] O
la_data_out[28] O
la_data_out[29] O
la_data_out[2] O
la_data_out[30] O
la_data_out[31] O
la_data_out[32] O
la_data_out[33] O
la_data_out[34] O
la_data_out[35] O
la_data_out[36] O
la_data_out[37] O
la_data_out[38] O
la_data_out[39] O
la_data_out[3] O
la_data_out[40] O
la_data_out[41] O
la_data_out[42] O
la_data_out[43] O
la_data_out[44] O
la_data_out[45] O
la_data_out[46] O
la_data_out[47] O
la_data_out[48] O
la_data_out[49] O
la_data_out[4] O
la_data_out[50] O
la_data_out[51] O
la_data_out[52] O
la_data_out[53] O
la_data_out[54] O
la_data_out[55] O
la_data_out[56] O
la_data_out[57] O
la_data_out[58] O
la_data_out[59] O
la_data_out[5] O
la_data_out[60] O
la_data_out[61] O
la_data_out[62] O
la_data_out[63] O
la_data_out[64] O
la_data_out[65] O
la_data_out[66] O
la_data_out[67] O
la_data_out[68] O
la_data_out[69] O
la_data_out[6] O
la_data_out[70] O
la_data_out[71] O
la_data_out[72] O
la_data_out[73] O
la_data_out[74] O
la_data_out[75] O
la_data_out[76] O
la_data_out[77] O
la_data_out[78] O
la_data_out[79] O
la_data_out[7] O
la_data_out[80] O
la_data_out[81] O
la_data_out[82] O
la_data_out[83] O
la_data_out[84] O
la_data_out[85] O
la_data_out[86] O
la_data_out[87] O
la_data_out[88] O
la_data_out[89] O
la_data_out[8] O
la_data_out[90] O
la_data_out[91] O
la_data_out[92] O
la_data_out[93] O
la_data_out[94] O
la_data_out[95] O
la_data_out[96] O
la_data_out[97] O
la_data_out[98] O
la_data_out[99] O
la_data_out[9] O
la_oenb[0] I
la_oenb[100] I
la_oenb[101] I
la_oenb[102] I
la_oenb[103] I
la_oenb[104] I
la_oenb[105] I
la_oenb[106] I
la_oenb[107] I
la_oenb[108] I
la_oenb[109] I
la_oenb[10] I
la_oenb[110] I
la_oenb[111] I
la_oenb[112] I
la_oenb[113] I
la_oenb[114] I
la_oenb[115] I
la_oenb[116] I
la_oenb[117] I
la_oenb[118] I
la_oenb[119] I
la_oenb[11] I
la_oenb[120] I
la_oenb[121] I
la_oenb[122] I
la_oenb[123] I
la_oenb[124] I
la_oenb[125] I
la_oenb[126] I
la_oenb[127] I
la_oenb[12] I
la_oenb[13] I
la_oenb[14] I
la_oenb[15] I
la_oenb[16] I
la_oenb[17] I
la_oenb[18] I
la_oenb[19] I
la_oenb[1] I
la_oenb[20] I
la_oenb[21] I
la_oenb[22] I
la_oenb[23] I
la_oenb[24] I
la_oenb[25] I
la_oenb[26] I
la_oenb[27] I
la_oenb[28] I
la_oenb[29] I
la_oenb[2] I
la_oenb[30] I
la_oenb[31] I
la_oenb[32] I
la_oenb[33] I
la_oenb[34] I
la_oenb[35] I
la_oenb[36] I
la_oenb[37] I
la_oenb[38] I
la_oenb[39] I
la_oenb[3] I
la_oenb[40] I
la_oenb[41] I
la_oenb[42] I
la_oenb[43] I
la_oenb[44] I
la_oenb[45] I
la_oenb[46] I
la_oenb[47] I
la_oenb[48] I
la_oenb[49] I
la_oenb[4] I
la_oenb[50] I
la_oenb[51] I
la_oenb[52] I
la_oenb[53] I
la_oenb[54] I
la_oenb[55] I
la_oenb[56] I
la_oenb[57] I
la_oenb[58] I
la_oenb[59] I
la_oenb[5] I
la_oenb[60] I
la_oenb[61] I
la_oenb[62] I
la_oenb[63] I
la_oenb[64] I
la_oenb[65] I
la_oenb[66] I
la_oenb[67] I
la_oenb[68] I
la_oenb[69] I
la_oenb[6] I
la_oenb[70] I
la_oenb[71] I
la_oenb[72] I
la_oenb[73] I
la_oenb[74] I
la_oenb[75] I
la_oenb[76] I
la_oenb[77] I
la_oenb[78] I
la_oenb[79] I
la_oenb[7] I
la_oenb[80] I
la_oenb[81] I
la_oenb[82] I
la_oenb[83] I
la_oenb[84] I
la_oenb[85] I
la_oenb[86] I
la_oenb[87] I
la_oenb[88] I
la_oenb[89] I
la_oenb[8] I
la_oenb[90] I
la_oenb[91] I
la_oenb[92] I
la_oenb[93] I
la_oenb[94] I
la_oenb[95] I
la_oenb[96] I
la_oenb[97] I
la_oenb[98] I
la_oenb[99] I
la_oenb[9] I
user_clock2 I
user_irq[0] O
user_irq[1] O
user_irq[2] O
wb_clk_i I
wb_rst_i I
wbs_ack_o O
wbs_adr_i[0] I
wbs_adr_i[10] I
wbs_adr_i[11] I
wbs_adr_i[12] I
wbs_adr_i[13] I
wbs_adr_i[14] I
wbs_adr_i[15] I
wbs_adr_i[16] I
wbs_adr_i[17] I
wbs_adr_i[18] I
wbs_adr_i[19] I
wbs_adr_i[1] I
wbs_adr_i[20] I
wbs_adr_i[21] I
wbs_adr_i[22] I
wbs_adr_i[23] I
wbs_adr_i[24] I
wbs_adr_i[25] I
wbs_adr_i[26] I
wbs_adr_i[27] I
wbs_adr_i[28] I
wbs_adr_i[29] I
wbs_adr_i[2] I
wbs_adr_i[30] I
wbs_adr_i[31] I
wbs_adr_i[3] I
wbs_adr_i[4] I
wbs_adr_i[5] I
wbs_adr_i[6] I
wbs_adr_i[7] I
wbs_adr_i[8] I
wbs_adr_i[9] I
wbs_cyc_i I
wbs_dat_i[0] I
wbs_dat_i[10] I
wbs_dat_i[11] I
wbs_dat_i[12] I
wbs_dat_i[13] I
wbs_dat_i[14] I
wbs_dat_i[15] I
wbs_dat_i[16] I
wbs_dat_i[17] I
wbs_dat_i[18] I
wbs_dat_i[19] I
wbs_dat_i[1] I
wbs_dat_i[20] I
wbs_dat_i[21] I
wbs_dat_i[22] I
wbs_dat_i[23] I
wbs_dat_i[24] I
wbs_dat_i[25] I
wbs_dat_i[26] I
wbs_dat_i[27] I
wbs_dat_i[28] I
wbs_dat_i[29] I
wbs_dat_i[2] I
wbs_dat_i[30] I
wbs_dat_i[31] I
wbs_dat_i[3] I
wbs_dat_i[4] I
wbs_dat_i[5] I
wbs_dat_i[6] I
wbs_dat_i[7] I
wbs_dat_i[8] I
wbs_dat_i[9] I
wbs_dat_o[0] O
wbs_dat_o[10] O
wbs_dat_o[11] O
wbs_dat_o[12] O
wbs_dat_o[13] O
wbs_dat_o[14] O
wbs_dat_o[15] O
wbs_dat_o[16] O
wbs_dat_o[17] O
wbs_dat_o[18] O
wbs_dat_o[19] O
wbs_dat_o[1] O
wbs_dat_o[20] O
wbs_dat_o[21] O
wbs_dat_o[22] O
wbs_dat_o[23] O
wbs_dat_o[24] O
wbs_dat_o[25] O
wbs_dat_o[26] O
wbs_dat_o[27] O
wbs_dat_o[28] O
wbs_dat_o[29] O
wbs_dat_o[2] O
wbs_dat_o[30] O
wbs_dat_o[31] O
wbs_dat_o[3] O
wbs_dat_o[4] O
wbs_dat_o[5] O
wbs_dat_o[6] O
wbs_dat_o[7] O
wbs_dat_o[8] O
wbs_dat_o[9] O
wbs_sel_i[0] I
wbs_sel_i[1] I
wbs_sel_i[2] I
wbs_sel_i[3] I
wbs_stb_i I
wbs_we_i I

*D_NET *30 0.435208
*CONN
*P io_in[0] I
*I *537:rf_adc_i_in[0] I *D phase_099_top_integration
*CAP
1 io_in[0] 0.000985385
2 *537:rf_adc_i_in[0] 0.000569845
3 *30:21 0.00941834
4 *30:19 0.00884849
5 *30:17 0.101372
6 *30:15 0.101372
7 *30:13 0.0379065
8 *30:11 0.0388918
9 *537:rf_adc_i_in[0] *537:rf_adc_i_in[4] 0
10 *537:rf_adc_i_in[0] *308:9 0
11 *30:17 la_data_out[82] 0
12 *30:21 *41:21 0.0088565
13 *30:21 *63:21 0.00102953
14 *30:21 *64:23 0.000231426
15 *30:21 *126:11 0.00473548
16 *30:21 *277:11 0.0193069
17 *30:21 *307:11 0.0205139
18 *30:21 *322:11 0.0113557
19 *30:21 *330:13 0.00580075
20 *30:21 *363:19 0.0640144
*RES
1 io_in[0] *30:11 14.5142 
2 *30:11 *30:13 723.804 
3 *30:13 *30:15 4.5 
4 *30:15 *30:17 2081.11 
5 *30:17 *30:19 4.5 
6 *30:19 *30:21 632.625 
7 *30:21 *537:rf_adc_i_in[0] 13.6518 
*END

*D_NET *31 0.198133
*CONN
*P io_in[10] I
*I *537:rf_adc_i_in[10] I *D phase_099_top_integration
*CAP
1 io_in[10] 0.0476317
2 *537:rf_adc_i_in[10] 0.000827979
3 *31:13 0.0160521
4 *31:11 0.0152241
5 *31:9 0.00252883
6 *31:7 0.00252883
7 *31:5 0.0476317
8 *537:rf_adc_i_in[10] *537:rf_adc_i_in[5] 0.000111363
9 *31:9 *61:19 0.000225092
10 *31:9 *295:29 0
11 *31:9 *295:31 0.000918785
12 *31:9 *317:31 0.00437797
13 *31:9 *320:15 2.30116e-06
14 *31:9 *331:15 0
15 *31:9 *363:25 0.000577071
16 *31:13 *537:rf_adc_i_in[5] 2.7883e-05
17 *31:13 *61:21 0.00225261
18 *31:13 *64:23 0.00410453
19 *31:13 *132:13 0.00210496
20 *31:13 *136:11 0
21 *31:13 *295:17 0.0118502
22 *31:13 *316:11 0.00164141
23 *31:13 *320:13 0.00411453
24 *31:13 *323:13 0.0216079
25 *31:13 *329:11 0.00176996
26 *31:13 *330:13 0.00143652
27 *31:13 *332:13 0.000158899
28 *31:13 *334:13 0.00839607
29 *31:13 *341:13 2.93106e-05
*RES
1 io_in[10] *31:5 134.248 
2 *31:5 *31:7 3.41 
3 *31:7 *31:9 72.375 
4 *31:9 *31:11 3.41 
5 *31:11 *31:13 81.9147 
6 *31:13 *537:rf_adc_i_in[10] 16.4993 
*END

*D_NET *32 0.168084
*CONN
*P io_in[11] I
*I *537:rf_adc_i_in[11] I *D phase_099_top_integration
*CAP
1 io_in[11] 0.0752279
2 *537:rf_adc_i_in[11] 1.27254e-05
3 *32:9 0.00879311
4 *32:7 0.00878039
5 *32:5 0.0752279
6 *32:9 *33:9 0
7 *32:9 *309:9 4.1737e-05
*RES
1 io_in[11] *32:5 213.881 
2 *32:5 *32:7 3.41 
3 *32:7 *32:9 176.196 
4 *32:9 *537:rf_adc_i_in[11] 0.267857 
*END

*D_NET *33 0.181476
*CONN
*P io_in[12] I
*I *537:rf_adc_i_in[12] I *D phase_099_top_integration
*CAP
1 io_in[12] 0.0704187
2 *537:rf_adc_i_in[12] 1.27254e-05
3 *33:9 0.0203193
4 *33:7 0.0203066
5 *33:5 0.0704187
6 *33:9 *34:9 0
7 *32:9 *33:9 0
*RES
1 io_in[12] *33:5 213.377 
2 *33:5 *33:7 3.41 
3 *33:7 *33:9 412.982 
4 *33:9 *537:rf_adc_i_in[12] 0.267857 
*END

*D_NET *34 0.204291
*CONN
*P io_in[13] I
*I *537:rf_adc_i_in[13] I *D phase_099_top_integration
*CAP
1 io_in[13] 0.0702223
2 *537:rf_adc_i_in[13] 1.27254e-05
3 *34:9 0.0317061
4 *34:7 0.0316933
5 *34:5 0.0702223
6 *34:9 *132:11 0.000434121
7 *33:9 *34:9 0
*RES
1 io_in[13] *34:5 212.872 
2 *34:5 *34:7 3.41 
3 *34:7 *34:9 650.375 
4 *34:9 *537:rf_adc_i_in[13] 0.267857 
*END

*D_NET *35 0.22624
*CONN
*P io_in[14] I
*I *537:rf_adc_i_in[14] I *D phase_099_top_integration
*CAP
1 io_in[14] 0.0687289
2 *537:rf_adc_i_in[14] 1.27254e-05
3 *35:9 0.0433817
4 *35:7 0.043369
5 *35:5 0.0687289
6 *35:5 io_out[24] 0.00201899
7 *35:9 *36:13 0
*RES
1 io_in[14] *35:5 211.359 
2 *35:5 *35:7 3.41 
3 *35:7 *35:9 887.768 
4 *35:9 *537:rf_adc_i_in[14] 0.267857 
*END

*D_NET *36 0.313129
*CONN
*P io_in[15] I
*I *537:rf_adc_i_in[15] I *D phase_099_top_integration
*CAP
1 io_in[15] 0.000691211
2 *537:rf_adc_i_in[15] 1.27254e-05
3 *36:13 0.0498648
4 *36:11 0.0498521
5 *36:9 0.0331087
6 *36:7 0.0337999
7 *36:9 io_oeb[17] 0.00696053
8 *36:9 *37:9 0.0913693
9 *36:9 *77:25 0.00982562
10 *36:9 *113:11 0.0376441
11 *35:9 *36:13 0
*RES
1 io_in[15] *36:7 17.4368 
2 *36:7 *36:9 193.186 
3 *36:9 *36:11 3.41 
4 *36:11 *36:13 1020.73 
5 *36:13 *537:rf_adc_i_in[15] 0.267857 
*END

*D_NET *37 0.624478
*CONN
*P io_in[16] I
*I *537:rf_adc_q_in[0] I *D phase_099_top_integration
*CAP
1 io_in[16] 0.000729059
2 *537:rf_adc_q_in[0] 0.000121818
3 *37:13 0.0797361
4 *37:11 0.0796143
5 *37:9 0.0530545
6 *37:7 0.0537836
7 *537:rf_adc_q_in[0] *537:rf_adc_q_in[13] 9.3166e-05
8 *537:rf_adc_q_in[0] *277:27 0
9 *537:rf_adc_q_in[0] *281:35 8.10798e-05
10 *537:rf_adc_q_in[0] *286:37 2.72228e-05
11 *37:9 io_out[17] 0.000211622
12 *37:9 io_out[18] 0.000213419
13 *37:9 *39:9 0.0390537
14 *37:9 *40:9 0.0635489
15 *37:9 *77:25 0.00367834
16 *37:9 *78:29 4.75671e-06
17 *37:13 *51:9 0.0172207
18 *37:13 *53:9 0.0115303
19 *37:13 *77:21 0.0969731
20 *37:13 *126:15 0.000741722
21 *37:13 *277:15 0.0192404
22 *37:13 *286:15 0.0123358
23 *37:13 *286:19 0.00111495
24 *36:9 *37:9 0.0913693
*RES
1 io_in[16] *37:7 18.0439 
2 *37:7 *37:9 251.956 
3 *37:9 *37:11 3.41 
4 *37:11 *37:13 366.309 
5 *37:13 *537:rf_adc_q_in[0] 8.54717 
*END

*D_NET *38 0.3909
*CONN
*P io_in[17] I
*I *537:rf_adc_q_in[1] I *D phase_099_top_integration
*CAP
1 io_in[17] 0.10249
2 *537:rf_adc_q_in[1] 7.71369e-05
3 *38:9 0.0447331
4 *38:7 0.044656
5 *38:5 0.10249
6 *537:rf_adc_q_in[1] *537:rf_adc_q_in[15] 0
7 *38:9 *537:rf_adc_q_in[5] 0.00130703
8 *38:9 *537:rf_adc_q_in[9] 0.000711873
9 *38:9 *76:9 0.0140267
10 *38:9 *77:19 4.73891e-05
11 *38:9 *78:23 9.32365e-05
12 *38:9 *80:25 4.73953e-05
13 *38:9 *277:27 0.00116981
14 *38:9 *279:35 9.32361e-05
15 *38:9 *281:35 2.1479e-05
16 *38:9 *286:37 0.0156012
17 *38:9 *307:19 0.0436497
18 *38:9 *307:29 0.0115734
19 *38:9 *308:43 0.00130431
20 *38:9 *312:27 0.00379717
21 *38:9 *315:33 0.00291565
22 *38:9 *316:29 2.14879e-05
23 *38:9 *320:33 2.14879e-05
24 *38:9 *334:29 2.1479e-05
25 *38:9 *341:29 3.01389e-05
*RES
1 io_in[17] *38:5 2106.24 
2 *38:5 *38:7 3.41 
3 *38:7 *38:9 197.978 
4 *38:9 *537:rf_adc_q_in[1] 4.68679 
*END

*D_NET *39 0.564452
*CONN
*P io_in[18] I
*I *537:rf_adc_q_in[2] I *D phase_099_top_integration
*CAP
1 io_in[18] 0.000750858
2 *537:rf_adc_q_in[2] 0.000397449
3 *39:13 0.0261978
4 *39:11 0.0258003
5 *39:9 0.0446746
6 *39:7 0.0454254
7 *537:rf_adc_q_in[2] *537:rf_adc_q_in[13] 0.000826334
8 *537:rf_adc_q_in[2] *77:19 0.00213711
9 *537:rf_adc_q_in[2] *80:25 0.000758461
10 *39:13 *42:13 0.170543
11 *39:13 *77:21 0.0374088
12 *39:13 *78:25 0.170405
13 *39:13 *279:15 7.29243e-05
14 *37:9 *39:9 0.0390537
*RES
1 io_in[18] *39:7 19.2857 
2 *39:7 *39:9 854.411 
3 *39:9 *39:11 4.5 
4 *39:11 *39:13 2087.33 
5 *39:13 *537:rf_adc_q_in[2] 10.146 
*END

*D_NET *40 0.49008
*CONN
*P io_in[19] I
*I *537:rf_adc_q_in[3] I *D phase_099_top_integration
*CAP
1 io_in[19] 0.000699352
2 *537:rf_adc_q_in[3] 0.00103053
3 *40:13 0.0652062
4 *40:11 0.0641757
5 *40:9 0.00889629
6 *40:7 0.00959564
7 *537:rf_adc_q_in[3] *537:rf_adc_q_in[4] 0
8 *537:rf_adc_q_in[3] *44:9 0.000742377
9 *537:rf_adc_q_in[3] *290:19 0.00225718
10 *40:9 *77:25 0.0635489
11 *40:13 *537:rf_adc_q_in[11] 0.000292711
12 *40:13 *42:13 0.171404
13 *40:13 *77:21 0.0386818
14 *37:9 *40:9 0.0635489
*RES
1 io_in[19] *40:7 17.4368 
2 *40:7 *40:9 98.9945 
3 *40:9 *40:11 3.41 
4 *40:11 *40:13 2098.41 
5 *40:13 *537:rf_adc_q_in[3] 18.7376 
*END

*D_NET *41 0.417054
*CONN
*P io_in[1] I
*I *537:rf_adc_i_in[1] I *D phase_099_top_integration
*CAP
1 io_in[1] 0.00108507
2 *537:rf_adc_i_in[1] 0.000613992
3 *41:21 0.0097137
4 *41:19 0.00909971
5 *41:17 0.0927449
6 *41:15 0.0927449
7 *41:13 0.035702
8 *41:11 0.036787
9 *537:rf_adc_i_in[1] *537:rf_adc_i_in[3] 0
10 *537:rf_adc_i_in[1] *296:7 1.68612e-05
11 *41:21 *52:21 0.0693276
12 *41:21 *126:11 0.00375069
13 *41:21 *136:11 0.000675044
14 *41:21 *277:11 0.0201276
15 *41:21 *307:11 0.0205139
16 *41:21 *322:11 0.0113557
17 *41:21 *330:13 0.00393919
18 *30:21 *41:21 0.0088565
*RES
1 io_in[1] *41:11 13.2693 
2 *41:11 *41:13 708.196 
3 *41:13 *41:15 4.5 
4 *41:15 *41:17 1905.04 
5 *41:17 *41:19 4.5 
6 *41:19 *41:21 652.75 
7 *41:21 *537:rf_adc_i_in[1] 13.8661 
*END

*D_NET *42 0.504116
*CONN
*P io_in[20] I
*I *537:rf_adc_q_in[4] I *D phase_099_top_integration
*CAP
1 io_in[20] 0.000602091
2 *537:rf_adc_q_in[4] 0.0010338
3 *42:13 0.0273886
4 *42:11 0.0263548
5 *42:9 0.00747084
6 *42:7 0.00807293
7 *537:rf_adc_q_in[4] *537:rf_adc_q_in[15] 0.00139107
8 *537:rf_adc_q_in[4] *277:29 1.8957e-06
9 *537:rf_adc_q_in[4] *289:21 0.000353801
10 *537:rf_adc_q_in[4] *290:19 0.00257745
11 *42:9 io_oeb[20] 0.013977
12 *42:9 *78:29 0.0309389
13 *42:13 *537:rf_adc_q_in[10] 0
14 *42:13 *537:rf_adc_q_in[11] 2.69464e-05
15 *42:13 *77:21 0.0418463
16 *42:13 *78:25 7.8513e-05
17 *42:13 *277:15 0
18 *42:13 *279:15 5.39189e-05
19 *537:rf_adc_q_in[3] *537:rf_adc_q_in[4] 0
20 *39:13 *42:13 0.170543
21 *40:13 *42:13 0.171404
*RES
1 io_in[20] *42:7 15.6154 
2 *42:7 *42:9 48.1875 
3 *42:9 *42:11 3.41 
4 *42:11 *42:13 2101.45 
5 *42:13 *537:rf_adc_q_in[4] 20.867 
*END

*D_NET *43 0.214858
*CONN
*P io_in[21] I
*I *537:rf_adc_q_in[5] I *D phase_099_top_integration
*CAP
1 io_in[21] 0.102425
2 *537:rf_adc_q_in[5] 0.00114928
3 *43:5 0.103574
4 *537:rf_adc_q_in[5] *537:rf_adc_q_in[6] 0
5 *537:rf_adc_q_in[5] *537:rf_adc_q_in[9] 0.00471226
6 *537:rf_adc_q_in[5] *277:27 0.000533918
7 *537:rf_adc_q_in[5] *277:29 2.58001e-05
8 *537:rf_adc_q_in[5] *299:39 0.00113014
9 *43:5 *71:5 0
10 *38:9 *537:rf_adc_q_in[5] 0.00130703
*RES
1 io_in[21] *43:5 2106.85 
2 *43:5 *537:rf_adc_q_in[5] 16.5571 
*END

*D_NET *44 0.254866
*CONN
*P io_in[22] I
*I *537:rf_adc_q_in[6] I *D phase_099_top_integration
*CAP
1 io_in[22] 0.102585
2 *537:rf_adc_q_in[6] 0.000347243
3 *44:9 0.0146937
4 *44:7 0.0143464
5 *44:5 0.102585
6 *537:rf_adc_q_in[6] *537:rf_adc_q_in[7] 0
7 *537:rf_adc_q_in[6] *277:29 0
8 *44:9 *537:rf_adc_q_in[10] 0.00233169
9 *44:9 *537:rf_adc_q_in[7] 0.00692468
10 *44:9 *50:13 0.00979506
11 *44:9 *290:19 0.00051375
12 *537:rf_adc_q_in[3] *44:9 0.000742377
13 *537:rf_adc_q_in[5] *537:rf_adc_q_in[6] 0
*RES
1 io_in[22] *44:5 2110.49 
2 *44:5 *44:7 3.41 
3 *44:7 *44:9 58.7093 
4 *44:9 *537:rf_adc_q_in[6] 9.39214 
*END

*D_NET *45 0.303752
*CONN
*P io_in[23] I
*I *537:rf_adc_q_in[7] I *D phase_099_top_integration
*CAP
1 io_in[23] 0.000720918
2 *537:rf_adc_q_in[7] 0.00217325
3 *45:13 0.0969325
4 *45:11 0.0947593
5 *45:9 0.032275
6 *45:7 0.0329959
7 *537:rf_adc_q_in[7] *537:rf_adc_q_in[8] 0.000146015
8 *537:rf_adc_q_in[7] *50:13 0.00204183
9 *537:rf_adc_q_in[7] *290:19 4.82783e-05
10 *537:rf_adc_q_in[7] *296:29 0.000325149
11 *537:rf_adc_q_in[7] *308:43 0.00152039
12 *45:9 io_oeb[21] 0.00073736
13 *45:13 *54:9 0.0321516
14 *45:13 *70:5 0
15 *537:rf_adc_q_in[6] *537:rf_adc_q_in[7] 0
16 *44:9 *537:rf_adc_q_in[7] 0.00692468
*RES
1 io_in[23] *45:7 18.0439 
2 *45:7 *45:9 98.5621 
3 *45:9 *45:11 3.41 
4 *45:11 *45:13 2095.38 
5 *45:13 *537:rf_adc_q_in[7] 23.7727 
*END

*D_NET *46 0.304895
*CONN
*P io_in[24] I
*I *537:rf_adc_q_in[8] I *D phase_099_top_integration
*CAP
1 io_in[24] 0.0411689
2 *537:rf_adc_q_in[8] 0.00198686
3 *46:9 0.100275
4 *46:7 0.0982881
5 *46:5 0.0411689
6 *537:rf_adc_q_in[8] *537:rf_adc_q_in[9] 0.0111501
7 *537:rf_adc_q_in[8] *50:13 0.00744913
8 *537:rf_adc_q_in[8] *308:43 0.00326154
9 *537:rf_adc_q_in[7] *537:rf_adc_q_in[8] 0.000146015
*RES
1 io_in[24] *46:5 124.663 
2 *46:5 *46:7 3.41 
3 *46:7 *46:9 2021.91 
4 *46:9 *537:rf_adc_q_in[8] 27.8607 
*END

*D_NET *47 0.280211
*CONN
*P io_in[25] I
*I *537:rf_adc_q_in[9] I *D phase_099_top_integration
*CAP
1 io_in[25] 0.0390089
2 *537:rf_adc_q_in[9] 0.00465395
3 *47:9 0.0915586
4 *47:7 0.0869046
5 *47:5 0.0390089
6 *537:rf_adc_q_in[9] *50:13 0.00234412
7 *537:rf_adc_q_in[9] *308:43 0.000157795
8 *537:rf_adc_q_in[5] *537:rf_adc_q_in[9] 0.00471226
9 *537:rf_adc_q_in[8] *537:rf_adc_q_in[9] 0.0111501
10 *38:9 *537:rf_adc_q_in[9] 0.000711873
*RES
1 io_in[25] *47:5 118.177 
2 *47:5 *47:7 3.41 
3 *47:7 *47:9 1788.16 
4 *47:9 *537:rf_adc_q_in[9] 34.244 
*END

*D_NET *48 0.251509
*CONN
*P io_in[26] I
*I *537:rf_adc_q_in[10] I *D phase_099_top_integration
*CAP
1 io_in[26] 0.03823
2 *537:rf_adc_q_in[10] 0.00649783
3 *48:9 0.0824111
4 *48:7 0.0759133
5 *48:5 0.03823
6 *537:rf_adc_q_in[10] *537:clk_2p4g 0
7 *537:rf_adc_q_in[10] *537:rf_adc_q_in[11] 0.00361452
8 *537:rf_adc_q_in[10] *537:rf_adc_q_in[15] 0.00326159
9 *537:rf_adc_q_in[10] *277:27 5.59682e-05
10 *537:rf_adc_q_in[10] *290:19 0.000962687
11 *537:rf_adc_q_in[10] *296:17 0
12 *42:13 *537:rf_adc_q_in[10] 0
13 *44:9 *537:rf_adc_q_in[10] 0.00233169
*RES
1 io_in[26] *48:5 108.448 
2 *48:5 *48:7 3.41 
3 *48:7 *48:9 1561.7 
4 *48:9 *537:rf_adc_q_in[10] 43.8729 
*END

*D_NET *49 0.222732
*CONN
*P io_in[27] I
*I *537:rf_adc_q_in[11] I *D phase_099_top_integration
*CAP
1 io_in[27] 0.0362523
2 *537:rf_adc_q_in[11] 0.00721658
3 *49:9 0.0719551
4 *49:7 0.0647385
5 *49:5 0.0362523
6 *537:rf_adc_q_in[11] *537:rf_adc_q_in[12] 8.69161e-05
7 *537:rf_adc_q_in[11] *537:rf_adc_q_in[15] 0.00139033
8 *537:rf_adc_q_in[11] *273:13 0
9 *537:rf_adc_q_in[11] *455:27 0.000905329
10 *537:rf_adc_q_in[10] *537:rf_adc_q_in[11] 0.00361452
11 *40:13 *537:rf_adc_q_in[11] 0.000292711
12 *42:13 *537:rf_adc_q_in[11] 2.69464e-05
*RES
1 io_in[27] *49:5 109.529 
2 *49:5 *49:7 3.41 
3 *49:7 *49:9 1331.59 
4 *49:9 *537:rf_adc_q_in[11] 44.781 
*END

*D_NET *50 0.207975
*CONN
*P io_in[28] I
*I *537:rf_adc_q_in[12] I *D phase_099_top_integration
*CAP
1 io_in[28] 0.00305439
2 *537:rf_adc_q_in[12] 0.000311772
3 *50:13 0.0370231
4 *50:11 0.0367113
5 *50:9 0.0530516
6 *50:7 0.056106
7 *537:rf_adc_q_in[12] *286:37 0
8 *537:rf_adc_q_in[11] *537:rf_adc_q_in[12] 8.69161e-05
9 *537:rf_adc_q_in[7] *50:13 0.00204183
10 *537:rf_adc_q_in[8] *50:13 0.00744913
11 *537:rf_adc_q_in[9] *50:13 0.00234412
12 *44:9 *50:13 0.00979506
*RES
1 io_in[28] *50:7 12.4058 
2 *50:7 *50:9 1091.16 
3 *50:9 *50:11 3.41 
4 *50:11 *50:13 127.389 
5 *50:13 *537:rf_adc_q_in[12] 8.67786 
*END

*D_NET *51 0.260577
*CONN
*P io_in[29] I
*I *537:rf_adc_q_in[13] I *D phase_099_top_integration
*CAP
1 io_in[29] 0.0451405
2 *537:rf_adc_q_in[13] 0.000275914
3 *51:9 0.0115363
4 *51:7 0.0112604
5 *51:5 0.0451405
6 *537:rf_adc_q_in[13] *537:rf_adc_q_in[14] 1.90463e-05
7 *537:rf_adc_q_in[13] *77:19 1.07995e-05
8 *537:rf_adc_q_in[13] *78:23 2.14159e-05
9 *537:rf_adc_q_in[13] *80:25 0.000115773
10 *537:rf_adc_q_in[13] *281:35 5.65101e-05
11 *537:rf_adc_q_in[13] *286:37 0.000938769
12 *51:9 *53:9 0.0504524
13 *51:9 *277:15 0.0697134
14 *51:9 *281:15 0
15 *51:9 *286:15 0.00770252
16 *51:9 *286:19 5.23931e-05
17 *537:rf_adc_q_in[0] *537:rf_adc_q_in[13] 9.3166e-05
18 *537:rf_adc_q_in[2] *537:rf_adc_q_in[13] 0.000826334
19 *37:13 *51:9 0.0172207
*RES
1 io_in[29] *51:5 135.401 
2 *51:5 *51:7 3.41 
3 *51:7 *51:9 851.339 
4 *51:9 *537:rf_adc_q_in[13] 9.23021 
*END

*D_NET *52 0.385261
*CONN
*P io_in[2] I
*I *537:rf_adc_i_in[2] I *D phase_099_top_integration
*CAP
1 io_in[2] 0.00112833
2 *537:rf_adc_i_in[2] 0.000620051
3 *52:21 0.0137232
4 *52:19 0.0131031
5 *52:17 0.0840397
6 *52:15 0.0840397
7 *52:13 0.0353975
8 *52:11 0.0365258
9 *537:rf_adc_i_in[2] *537:rf_adc_i_in[3] 0
10 *537:rf_adc_i_in[2] *344:17 0
11 *52:21 *126:11 0.00472529
12 *52:21 *136:11 0.000675044
13 *52:21 *272:11 0.000106017
14 *52:21 *277:11 0.000313076
15 *52:21 *281:11 0.0227615
16 *52:21 *298:11 0.00751115
17 *52:21 *330:13 0.00839382
18 *52:21 *357:11 0.00287048
19 *41:21 *52:21 0.0693276
*RES
1 io_in[2] *52:11 14.18 
2 *52:11 *52:13 702.036 
3 *52:13 *52:15 4.5 
4 *52:15 *52:17 1725.93 
5 *52:17 *52:19 4.5 
6 *52:19 *52:21 664.25 
7 *52:21 *537:rf_adc_i_in[2] 13.9732 
*END

*D_NET *53 0.203354
*CONN
*P io_in[30] I
*I *537:rf_adc_q_in[14] I *D phase_099_top_integration
*CAP
1 io_in[30] 0.0451191
2 *537:rf_adc_q_in[14] 0.000752714
3 *53:9 0.00949348
4 *53:7 0.00874076
5 *53:5 0.0451191
6 *537:rf_adc_q_in[14] *78:23 0.000930207
7 *537:rf_adc_q_in[14] *131:13 0.00015556
8 *537:rf_adc_q_in[14] *286:37 0.000137556
9 *53:9 *286:15 0.0253947
10 *53:9 *286:19 0.00550935
11 *537:rf_adc_q_in[13] *537:rf_adc_q_in[14] 1.90463e-05
12 *37:13 *53:9 0.0115303
13 *51:9 *53:9 0.0504524
*RES
1 io_in[30] *53:5 135.329 
2 *53:5 *53:7 3.41 
3 *53:7 *53:9 616.375 
4 *53:9 *537:rf_adc_q_in[14] 13.7407 
*END

*D_NET *54 0.153223
*CONN
*P io_in[31] I
*I *537:rf_adc_q_in[15] I *D phase_099_top_integration
*CAP
1 io_in[31] 0.0432133
2 *537:rf_adc_q_in[15] 0.00172804
3 *54:9 0.0139921
4 *54:7 0.0122641
5 *54:5 0.0432133
6 *537:rf_adc_q_in[15] *289:21 0.000317683
7 *537:rf_adc_q_in[15] *290:19 0.000179821
8 *537:rf_adc_q_in[15] *455:27 0.000120399
9 *54:9 *70:5 0
10 *537:rf_adc_q_in[10] *537:rf_adc_q_in[15] 0.00326159
11 *537:rf_adc_q_in[11] *537:rf_adc_q_in[15] 0.00139033
12 *537:rf_adc_q_in[1] *537:rf_adc_q_in[15] 0
13 *537:rf_adc_q_in[4] *537:rf_adc_q_in[15] 0.00139107
14 *45:13 *54:9 0.0321516
*RES
1 io_in[31] *54:5 130.14 
2 *54:5 *54:7 3.41 
3 *54:7 *54:9 398.411 
4 *54:9 *537:rf_adc_q_in[15] 24.4193 
*END

*D_NET *61 0.450086
*CONN
*P io_in[3] I
*I *537:rf_adc_i_in[3] I *D phase_099_top_integration
*CAP
1 io_in[3] 0.047399
2 *537:rf_adc_i_in[3] 0.00241002
3 *61:21 0.0123846
4 *61:19 0.0102112
5 *61:9 0.0857743
6 *61:7 0.0855377
7 *61:5 0.047399
8 *537:rf_adc_i_in[3] *126:11 0.00509584
9 *537:rf_adc_i_in[3] *272:11 0.00977623
10 *537:rf_adc_i_in[3] *281:11 0.00170572
11 *537:rf_adc_i_in[3] *291:9 0
12 *537:rf_adc_i_in[3] *322:25 0.000276209
13 *537:rf_adc_i_in[3] *363:17 0.000768149
14 *61:9 *295:31 0.0213965
15 *61:9 *298:23 0.0394198
16 *61:9 *320:15 0.00678623
17 *61:19 *64:13 0
18 *61:19 *320:15 3.34078e-05
19 *61:19 *341:13 6.06376e-05
20 *61:19 *363:25 0.000155615
21 *61:21 *62:21 0.0124747
22 *61:21 *63:21 0.012782
23 *61:21 *292:11 0.0152601
24 *61:21 *295:19 0.000475254
25 *61:21 *315:11 0.00673706
26 *61:21 *329:11 0.0178065
27 *61:21 *330:13 0.00197052
28 *61:21 *332:13 0.00146333
29 *61:21 *363:19 0.00204852
30 *537:rf_adc_i_in[1] *537:rf_adc_i_in[3] 0
31 *537:rf_adc_i_in[2] *537:rf_adc_i_in[3] 0
32 *31:9 *61:19 0.000225092
33 *31:13 *61:21 0.00225261
*RES
1 io_in[3] *61:5 134.068 
2 *61:5 *61:7 3.41 
3 *61:7 *61:9 272.133 
4 *61:9 *61:19 14.6282 
5 *61:19 *61:21 527.482 
6 *61:21 *537:rf_adc_i_in[3] 37.0641 
*END

*D_NET *62 0.397671
*CONN
*P io_in[4] I
*I *537:rf_adc_i_in[4] I *D phase_099_top_integration
*CAP
1 io_in[4] 0.000931963
2 *537:rf_adc_i_in[4] 0.00356038
3 *62:21 0.00514928
4 *62:19 0.00186253
5 *62:13 0.0551113
6 *62:11 0.0548376
7 *62:9 0.0481847
8 *62:7 0.0491167
9 *537:rf_adc_i_in[4] *537:rf_adc_i_in[5] 0.0112261
10 *537:rf_adc_i_in[4] *64:23 0.00491972
11 *537:rf_adc_i_in[4] *126:11 0.002579
12 *537:rf_adc_i_in[4] *132:13 0.00087601
13 *537:rf_adc_i_in[4] *289:11 0.00238323
14 *537:rf_adc_i_in[4] *363:17 0
15 *62:9 *63:11 0.00046545
16 *62:9 *64:9 0.0826889
17 *62:13 *64:13 0.0388126
18 *62:13 *344:11 0.00421171
19 *62:13 *352:21 0.00396473
20 *62:13 *362:9 0
21 *62:19 *113:7 0.000167698
22 *62:19 *322:17 0.00012401
23 *62:21 *63:21 0.0112117
24 *62:21 *64:23 0.00211088
25 *62:21 *363:19 0.000700416
26 *537:rf_adc_i_in[0] *537:rf_adc_i_in[4] 0
27 *61:21 *62:21 0.0124747
*RES
1 io_in[4] *62:7 5.99187 
2 *62:7 *62:9 1369.69 
3 *62:9 *62:11 4.5 
4 *62:11 *62:13 1111.52 
5 *62:13 *62:19 14.8929 
6 *62:19 *62:21 117.589 
7 *62:21 *537:rf_adc_i_in[4] 46.2855 
*END

*D_NET *63 0.333035
*CONN
*P io_in[5] I
*I *537:rf_adc_i_in[5] I *D phase_099_top_integration
*CAP
1 io_in[5] 0.00115016
2 *537:rf_adc_i_in[5] 0.00349613
3 *63:21 0.010609
4 *63:19 0.00711289
5 *63:17 0.0581182
6 *63:15 0.0581182
7 *63:13 0.0384739
8 *63:11 0.0396241
9 *537:rf_adc_i_in[5] *64:23 0.000757342
10 *537:rf_adc_i_in[5] *132:13 0.00662325
11 *537:rf_adc_i_in[5] *289:9 0
12 *537:rf_adc_i_in[5] *299:15 2.63616e-05
13 *63:17 *314:15 0
14 *63:17 *329:15 0
15 *63:21 *64:23 0.00185645
16 *63:21 *292:11 0.0152601
17 *63:21 *315:11 0.000168399
18 *63:21 *329:11 0.000121659
19 *63:21 *330:13 0.0012783
20 *63:21 *332:13 0.00280057
21 *63:21 *341:13 0.00107541
22 *63:21 *363:19 0.0495106
23 *537:rf_adc_i_in[10] *537:rf_adc_i_in[5] 0.000111363
24 *537:rf_adc_i_in[4] *537:rf_adc_i_in[5] 0.0112261
25 *30:21 *63:21 0.00102953
26 *31:13 *537:rf_adc_i_in[5] 2.7883e-05
27 *61:21 *63:21 0.012782
28 *62:9 *63:11 0.00046545
29 *62:21 *63:21 0.0112117
*RES
1 io_in[5] *63:11 16.305 
2 *63:11 *63:13 732.839 
3 *63:13 *63:15 4.5 
4 *63:15 *63:17 1191.64 
5 *63:17 *63:19 4.5 
6 *63:19 *63:21 483.946 
7 *63:21 *537:rf_adc_i_in[5] 43.9985 
*END

*D_NET *64 0.41447
*CONN
*P io_in[6] I
*I *537:rf_adc_i_in[6] I *D phase_099_top_integration
*CAP
1 io_in[6] 0.000899761
2 *537:rf_adc_i_in[6] 0.000678008
3 *64:23 0.00585499
4 *64:13 0.0574545
5 *64:11 0.0522775
6 *64:9 0.0255737
7 *64:7 0.0264734
8 *537:rf_adc_i_in[6] *326:9 0
9 *64:9 *67:9 0.0242766
10 *64:13 *66:13 0
11 *64:13 *67:15 0
12 *64:13 *67:17 0
13 *64:13 *295:29 0
14 *64:13 *312:9 3.20942e-05
15 *64:13 *317:19 0.0387986
16 *64:13 *318:11 0.0133958
17 *64:13 *326:11 0.00129727
18 *64:13 *341:13 0
19 *64:13 *346:13 0.0185644
20 *64:13 *351:19 0.000464115
21 *64:13 *352:21 0.00166595
22 *64:23 *121:9 0
23 *64:23 *126:11 0.00828864
24 *64:23 *136:11 0
25 *64:23 *272:11 0.000167073
26 *64:23 *329:11 0.000817028
27 *64:23 *363:19 0.00200847
28 *537:rf_adc_i_in[4] *64:23 0.00491972
29 *537:rf_adc_i_in[5] *64:23 0.000757342
30 *30:21 *64:23 0.000231426
31 *31:13 *64:23 0.00410453
32 *61:19 *64:13 0
33 *62:9 *64:9 0.0826889
34 *62:13 *64:13 0.0388126
35 *62:21 *64:23 0.00211088
36 *63:21 *64:23 0.00185645
*RES
1 io_in[6] *64:7 5.9198 
2 *64:7 *64:9 1013.45 
3 *64:9 *64:11 3.41 
4 *64:11 *64:13 196.357 
5 *64:13 *64:23 43.4984 
6 *64:23 *537:rf_adc_i_in[6] 10.3214 
*END

*D_NET *65 0.26729
*CONN
*P io_in[7] I
*I *537:rf_adc_i_in[7] I *D phase_099_top_integration
*CAP
1 io_in[7] 0.0435924
2 *537:rf_adc_i_in[7] 0.000731901
3 *65:13 0.0240042
4 *65:11 0.0232723
5 *65:9 0.0374107
6 *65:7 0.0374107
7 *65:5 0.0435924
8 *537:rf_adc_i_in[7] *130:10 0.000917644
9 *537:rf_adc_i_in[7] *340:6 0.000574103
10 *65:13 *67:17 0
11 *65:13 *317:29 0.000693815
12 *65:13 *318:21 9.23473e-06
13 *65:13 *321:20 0.00012968
14 *65:13 *325:18 0.0546687
15 *65:13 *340:16 0.000282685
*RES
1 io_in[7] *65:5 123.654 
2 *65:5 *65:7 3.41 
3 *65:7 *65:9 767.554 
4 *65:9 *65:11 3.41 
5 *65:11 *65:13 96.22 
6 *65:13 *537:rf_adc_i_in[7] 13.5231 
*END

*D_NET *66 0.269275
*CONN
*P io_in[8] I
*I *537:rf_adc_i_in[8] I *D phase_099_top_integration
*CAP
1 io_in[8] 0.0402412
2 *537:rf_adc_i_in[8] 0
3 *66:13 0.0122867
4 *66:11 0.0122867
5 *66:9 0.0260605
6 *66:7 0.0260605
7 *66:5 0.0402412
8 *66:5 *142:11 0.000600705
9 *66:13 *67:17 0.0581097
10 *66:13 *130:10 0.000401987
11 *66:13 *312:9 3.28263e-05
12 *66:13 *323:23 0.00100577
13 *66:13 *340:6 0.0515297
14 *66:13 *353:11 0.00020894
15 *66:13 *362:9 0.00020894
16 *64:13 *66:13 0
*RES
1 io_in[8] *66:5 122.573 
2 *66:5 *66:7 3.41 
3 *66:7 *66:9 534.411 
4 *66:9 *66:11 3.41 
5 *66:11 *66:13 95.4272 
6 *66:13 *537:rf_adc_i_in[8] 3.41 
*END

*D_NET *67 0.27672
*CONN
*P io_in[9] I
*I *537:rf_adc_i_in[9] I *D phase_099_top_integration
*CAP
1 io_in[9] 0.000836542
2 *537:rf_adc_i_in[9] 0.00127386
3 *67:17 0.055044
4 *67:15 0.0570738
5 *67:9 0.0123993
6 *67:7 0.00993221
7 *537:rf_adc_i_in[9] *126:11 0.000811228
8 *537:rf_adc_i_in[9] *135:9 0
9 *537:rf_adc_i_in[9] *272:11 0.00145084
10 *537:rf_adc_i_in[9] *281:11 0.000288852
11 *537:rf_adc_i_in[9] *338:16 0.000148676
12 *67:15 io_out[10] 0.00123462
13 *67:17 *130:8 0.00684131
14 *67:17 *130:10 0.00114181
15 *67:17 *304:11 0.00561971
16 *67:17 *314:11 0.00521769
17 *67:17 *318:21 0.00220973
18 *67:17 *321:8 0.00305459
19 *67:17 *321:10 0.0105255
20 *67:17 *325:18 0.000647845
21 *67:17 *338:18 0.0185816
22 *64:9 *67:9 0.0242766
23 *64:13 *67:15 0
24 *64:13 *67:17 0
25 *65:13 *67:17 0
26 *66:13 *67:17 0.0581097
*RES
1 io_in[9] *67:7 5.84773 
2 *67:7 *67:9 297.625 
3 *67:9 *67:15 14.0242 
4 *67:15 *67:17 202.302 
5 *67:17 *537:rf_adc_i_in[9] 28.6182 
*END

*D_NET *68 0.255244
*CONN
*P io_oeb[0] O
*P la_oenb[0] I
*CAP
1 io_oeb[0] 0.103284
2 la_oenb[0] 0.00742232
3 *68:7 0.103284
4 *68:5 0.00742232
5 io_oeb[0] *101:9 0.0327431
6 io_oeb[0] *299:177 0.00108928
*RES
1 la_oenb[0] *68:5 146.384 
2 *68:5 *68:7 3.41 
3 *68:7 io_oeb[0] 356.717 
*END

*D_NET *69 0.428666
*CONN
*P io_oeb[10] O
*P la_oenb[10] I
*CAP
1 io_oeb[10] 0.108745
2 la_oenb[10] 0.105588
3 *69:7 0.108745
4 *69:5 0.105588
*RES
1 la_oenb[10] *69:5 2162.1 
2 *69:5 *69:7 3.41 
3 *69:7 io_oeb[10] 328.9 
*END

*D_NET *70 0.449802
*CONN
*P io_oeb[11] O
*P la_oenb[11] I
*CAP
1 io_oeb[11] 0.107759
2 la_oenb[11] 0.117142
3 *70:7 0.107759
4 *70:5 0.117142
5 *70:5 la_data_out[11] 0
6 *70:5 *273:17 0
7 *45:13 *70:5 0
8 *54:9 *70:5 0
*RES
1 la_oenb[11] *70:5 2399.49 
2 *70:5 *70:7 3.41 
3 *70:7 io_oeb[11] 326.161 
*END

*D_NET *71 0.486406
*CONN
*P io_oeb[12] O
*P la_oenb[12] I
*CAP
1 io_oeb[12] 0.106727
2 la_oenb[12] 0.111587
3 *71:7 0.106727
4 *71:5 0.111587
5 *71:5 *290:15 3.71252e-05
6 *71:5 *291:15 0.0497407
7 *43:5 *71:5 0
*RES
1 la_oenb[12] *71:5 2636.88 
2 *71:5 *71:7 3.41 
3 *71:7 io_oeb[12] 323.351 
*END

*D_NET *72 0.49347
*CONN
*P io_oeb[13] O
*P la_oenb[13] I
*CAP
1 io_oeb[13] 0.0353996
2 la_oenb[13] 0.00696089
3 *72:15 0.0353996
4 *72:13 0.133181
5 *72:11 0.133181
6 *72:9 0.0709181
7 *72:7 0.0709181
8 *72:5 0.00696089
9 *72:9 *308:149 0.000549834
*RES
1 la_oenb[13] *72:5 136.67 
2 *72:5 *72:7 3.41 
3 *72:7 *72:9 213.22 
4 *72:9 *72:11 3.41 
5 *72:11 *72:13 2737.12 
6 *72:13 *72:15 3.41 
7 *72:15 io_oeb[13] 107.439 
*END

*D_NET *73 0.515894
*CONN
*P io_oeb[14] O
*P la_oenb[14] I
*CAP
1 io_oeb[14] 0.0217737
2 la_oenb[14] 0.00790403
3 *73:15 0.0217737
4 *73:13 0.143753
5 *73:11 0.143753
6 *73:9 0.0840072
7 *73:7 0.0840072
8 *73:5 0.00790403
9 *73:5 *276:17 0
10 *73:9 *101:9 0
11 *73:9 *102:9 0
12 *73:9 *317:127 0.00101773
*RES
1 la_oenb[14] *73:5 155.491 
2 *73:5 *73:7 3.41 
3 *73:7 *73:9 251.488 
4 *73:9 *73:11 3.41 
5 *73:11 *73:13 2955.7 
6 *73:13 *73:15 3.41 
7 *73:15 io_oeb[14] 66.3609 
*END

*D_NET *74 0.582991
*CONN
*P io_oeb[15] O
*P la_oenb[15] I
*CAP
1 io_oeb[15] 0.151438
2 la_oenb[15] 0.00151815
3 *74:11 0.151438
4 *74:9 0.0493936
5 *74:7 0.0509117
6 *74:9 io_oeb[37] 0.000898618
7 *74:9 *75:9 0.136294
8 *74:9 *194:9 0.0411002
*RES
1 la_oenb[15] *74:7 29.5796 
2 *74:7 *74:9 270.874 
3 *74:9 *74:11 3.41 
4 *74:11 io_oeb[15] 3113.49 
*END

*D_NET *75 0.60288
*CONN
*P io_oeb[16] O
*P la_oenb[16] I
*CAP
1 io_oeb[16] 0.151453
2 la_oenb[16] 0.00155436
3 *75:11 0.151453
4 *75:9 0.0282402
5 *75:7 0.0297946
6 *75:7 *278:21 0
7 *75:9 io_oeb[37] 0.0365983
8 *75:9 *323:29 0.036494
9 *75:9 *358:13 0.0309979
10 *74:9 *75:9 0.136294
*RES
1 la_oenb[16] *75:7 30.1868 
2 *75:7 *75:9 217.328 
3 *75:9 *75:11 3.41 
4 *75:11 io_oeb[16] 3112.88 
*END

*D_NET *76 0.585844
*CONN
*P io_oeb[17] O
*P la_oenb[17] I
*CAP
1 io_oeb[17] 0.00173955
2 la_oenb[17] 0.0505938
3 *76:21 0.0885697
4 *76:19 0.0916423
5 *76:15 0.0139635
6 *76:9 0.0597771
7 *76:7 0.0506258
8 *76:5 0.0505938
9 io_oeb[17] *113:11 0.00696053
10 *76:9 *77:19 7.4445e-06
11 *76:9 *78:23 2.00931e-05
12 *76:9 *80:25 9.56793e-06
13 *76:9 *280:13 0
14 *76:9 *281:35 1.46412e-05
15 *76:9 *290:19 0
16 *76:9 *296:29 0.000320402
17 *76:9 *300:15 0
18 *76:9 *303:15 0.00427745
19 *76:9 *308:43 0.00169442
20 *76:9 *311:13 0
21 *76:9 *312:27 0.011953
22 *76:9 *316:29 1.46491e-05
23 *76:9 *320:33 1.46491e-05
24 *76:9 *321:26 0
25 *76:9 *334:29 1.46412e-05
26 *76:9 *336:15 0
27 *76:9 *360:15 0.00010884
28 *76:15 *292:15 0.00363526
29 *76:15 *295:31 0.00645855
30 *76:15 *309:39 0
31 *76:15 *330:15 0.00703124
32 *76:15 *332:15 0.00393266
33 *76:15 *345:15 0.0033596
34 *76:19 *292:15 0.00253679
35 *76:19 *295:31 0.0109451
36 *76:19 *309:33 2.85934e-05
37 *76:19 *309:39 0
38 *76:19 *317:41 0
39 *76:19 *330:15 0.00433551
40 *76:19 *332:15 0.00234562
41 *76:19 *345:15 0.00226777
42 *76:21 *114:17 0.0200024
43 *76:21 *295:31 0.0236038
44 *76:21 *330:15 0.0265876
45 *76:21 *332:15 0.0148708
46 *36:9 io_oeb[17] 0.00696053
47 *38:9 *76:9 0.0140267
*RES
1 la_oenb[17] *76:5 1030.38 
2 *76:5 *76:7 3.41 
3 *76:7 *76:9 174.556 
4 *76:9 *76:15 40.0199 
5 *76:15 *76:19 23.0833 
6 *76:19 *76:21 308.871 
7 *76:21 io_oeb[17] 31.1327 
*END

*D_NET *77 0.730709
*CONN
*P io_oeb[18] O
*P la_oenb[18] I
*CAP
1 io_oeb[18] 0.000669645
2 la_oenb[18] 0.0499816
3 *77:25 0.0180358
4 *77:23 0.0173662
5 *77:21 0.077975
6 *77:19 0.0798055
7 *77:5 0.0518121
8 *77:5 *296:43 0.000248493
9 *77:5 *299:87 0.000618853
10 *77:5 *308:43 0.00181268
11 *77:19 *80:25 0.00376441
12 *77:19 *281:35 0.00929406
13 *77:19 *308:43 2.12591e-06
14 *77:21 *78:25 0.0555771
15 *77:21 *80:27 0
16 *77:21 *279:15 0.0215228
17 *77:21 *289:15 0
18 *77:21 *308:23 0
19 *77:25 *78:29 0.0473257
20 *77:25 *113:11 0.000731224
21 *537:rf_adc_q_in[13] *77:19 1.07995e-05
22 *537:rf_adc_q_in[2] *77:19 0.00213711
23 *36:9 *77:25 0.00982562
24 *37:9 *77:25 0.00367834
25 *37:13 *77:21 0.0969731
26 *38:9 *77:19 4.73891e-05
27 *39:13 *77:21 0.0374088
28 *40:9 *77:25 0.0635489
29 *40:13 *77:21 0.0386818
30 *42:13 *77:21 0.0418463
31 *76:9 *77:19 7.4445e-06
*RES
1 la_oenb[18] *77:5 1032.81 
2 *77:5 *77:19 28.9761 
3 *77:19 *77:21 366.628 
4 *77:21 *77:23 3.41 
5 *77:23 *77:25 124.542 
6 *77:25 io_oeb[18] 16.8296 
*END

*D_NET *78 0.621777
*CONN
*P io_oeb[19] O
*P la_oenb[19] I
*CAP
1 io_oeb[19] 0.000631798
2 la_oenb[19] 0.0503383
3 *78:29 0.0103489
4 *78:27 0.00971708
5 *78:25 0.0441215
6 *78:23 0.0481607
7 *78:5 0.0543776
8 *78:5 *296:51 0.000968744
9 *78:5 *299:101 0
10 *78:5 *308:47 0
11 *78:23 *80:25 0.0090988
12 *78:23 *131:13 0
13 *78:23 *281:35 0
14 *78:23 *286:37 0.000708442
15 *78:25 *279:15 0.0879104
16 *78:25 *286:15 0
17 *537:rf_adc_q_in[13] *78:23 2.14159e-05
18 *537:rf_adc_q_in[14] *78:23 0.000930207
19 *37:9 *78:29 4.75671e-06
20 *38:9 *78:23 9.32365e-05
21 *39:13 *78:25 0.170405
22 *42:9 *78:29 0.0309389
23 *42:13 *78:25 7.8513e-05
24 *76:9 *78:23 2.00931e-05
25 *77:21 *78:25 0.0555771
26 *77:25 *78:29 0.0473257
*RES
1 la_oenb[19] *78:5 1032.81 
2 *78:5 *78:23 32.3429 
3 *78:23 *78:25 2087.48 
4 *78:25 *78:27 3.41 
5 *78:27 *78:29 73.7712 
6 *78:29 io_oeb[19] 16.2225 
*END

*D_NET *79 0.267864
*CONN
*P io_oeb[1] O
*P la_oenb[1] I
*CAP
1 io_oeb[1] 0.117854
2 la_oenb[1] 0.016078
3 *79:7 0.117854
4 *79:5 0.016078
5 io_oeb[1] *318:77 0
*RES
1 la_oenb[1] *79:5 324.277 
2 *79:5 *79:7 3.41 
3 *79:7 io_oeb[1] 353.907 
*END

*D_NET *80 0.43027
*CONN
*P io_oeb[20] O
*P la_oenb[20] I
*CAP
1 io_oeb[20] 0.0051383
2 la_oenb[20] 0.0507587
3 *80:27 0.0914463
4 *80:25 0.0897373
5 *80:5 0.054188
6 *80:25 *131:13 0
7 *80:25 *281:35 0.000414513
8 *80:25 *286:37 0
9 *80:27 *289:15 0.092348
10 *80:27 *308:31 0.018467
11 *537:rf_adc_q_in[13] *80:25 0.000115773
12 *537:rf_adc_q_in[2] *80:25 0.000758461
13 *38:9 *80:25 4.73953e-05
14 *42:9 io_oeb[20] 0.013977
15 *76:9 *80:25 9.56793e-06
16 *77:19 *80:25 0.00376441
17 *77:21 *80:27 0
18 *78:23 *80:25 0.0090988
*RES
1 la_oenb[20] *80:5 1032.81 
2 *80:5 *80:25 33.9048 
3 *80:25 *80:27 366.628 
4 *80:27 io_oeb[20] 40.1933 
*END

*D_NET *81 0.340248
*CONN
*P io_oeb[21] O
*P la_oenb[21] I
*CAP
1 io_oeb[21] 0.00172118
2 la_oenb[21] 0.0265699
3 *81:13 0.127379
4 *81:11 0.125658
5 *81:9 0.015806
6 *81:7 0.015806
7 *81:5 0.0265699
8 *81:5 *283:17 0
9 *81:5 *299:121 0
10 *81:13 *100:5 0
11 *45:9 io_oeb[21] 0.00073736
*RES
1 la_oenb[21] *81:5 537.384 
2 *81:5 *81:7 3.41 
3 *81:7 *81:9 46.9624 
4 *81:9 *81:11 3.41 
5 *81:11 *81:13 2585.34 
6 *81:13 io_oeb[21] 27.8211 
*END

*D_NET *82 0.417934
*CONN
*P io_oeb[22] O
*P la_oenb[22] I
*CAP
1 io_oeb[22] 0.151625
2 la_oenb[22] 0.00124605
3 *82:11 0.151625
4 *82:9 0.0191595
5 *82:7 0.0204055
6 *82:7 *238:23 0
7 *82:9 *83:9 0.066812
8 *82:9 *194:9 0.00706182
*RES
1 la_oenb[22] *82:7 24.1154 
2 *82:7 *82:9 104.4 
3 *82:9 *82:11 3.41 
4 *82:11 io_oeb[22] 3118.96 
*END

*D_NET *83 0.454888
*CONN
*P io_oeb[23] O
*P la_oenb[23] I
*CAP
1 io_oeb[23] 0.151659
2 la_oenb[23] 0.00121016
3 *83:11 0.151659
4 *83:9 0.0363144
5 *83:7 0.0375245
6 *83:7 *285:25 0
7 *83:9 *194:9 0
8 *83:9 *205:9 0.000730081
9 *83:9 *227:9 0.00897806
10 *83:9 *283:23 0
11 *83:9 *284:31 0
12 *82:9 *83:9 0.066812
*RES
1 la_oenb[23] *83:7 23.5082 
2 *83:7 *83:9 158.017 
3 *83:9 *83:11 3.41 
4 *83:11 io_oeb[23] 3119.56 
*END

*D_NET *84 0.40334
*CONN
*P io_oeb[24] O
*P la_oenb[24] I
*CAP
1 io_oeb[24] 0.00778237
2 la_oenb[24] 0.00334901
3 *84:13 0.147464
4 *84:11 0.139682
5 *84:9 0.0508571
6 *84:7 0.0508571
7 *84:5 0.00334901
8 *84:9 *85:9 0
*RES
1 la_oenb[24] *84:5 63.2054 
2 *84:5 *84:7 3.41 
3 *84:7 *84:9 143.964 
4 *84:9 *84:11 3.41 
5 *84:11 *84:13 2873.73 
6 *84:13 io_oeb[24] 26.4588 
*END

*D_NET *85 0.37931
*CONN
*P io_oeb[25] O
*P la_oenb[25] I
*CAP
1 io_oeb[25] 0.00412171
2 la_oenb[25] 0.00363967
3 *85:13 0.132202
4 *85:11 0.12808
5 *85:9 0.0538135
6 *85:7 0.0538135
7 *85:5 0.00363967
8 *85:5 *287:17 0
9 *85:9 *86:9 0
10 *85:13 *133:27 0
11 *84:9 *85:9 0
*RES
1 la_oenb[25] *85:5 69.2768 
2 *85:5 *85:7 3.41 
3 *85:7 *85:9 157.513 
4 *85:9 *85:11 3.41 
5 *85:11 *85:13 2635.12 
6 *85:13 io_oeb[25] 15.6488 
*END

*D_NET *86 0.358071
*CONN
*P io_oeb[26] O
*P la_oenb[26] I
*CAP
1 io_oeb[26] 0.00517237
2 la_oenb[26] 0.00314089
3 *86:13 0.121634
4 *86:11 0.116462
5 *86:9 0.0525004
6 *86:7 0.0525004
7 *86:5 0.00314089
8 *86:5 *464:13 0.00351933
9 *86:9 *89:9 0
10 *85:9 *86:9 0
*RES
1 la_oenb[26] *86:5 75.3482 
2 *86:5 *86:7 3.41 
3 *86:7 *86:9 158.161 
4 *86:9 *86:11 3.41 
5 *86:11 *86:13 2395.91 
6 *86:13 io_oeb[26] 17.8108 
*END

*D_NET *87 0.337971
*CONN
*P io_oeb[27] O
*P la_oenb[27] I
*CAP
1 io_oeb[27] 0.0084591
2 la_oenb[27] 0.00451159
3 *87:13 0.113014
4 *87:11 0.104555
5 *87:9 0.0514599
6 *87:7 0.0514599
7 *87:5 0.00451159
8 *87:9 *89:9 0
*RES
1 la_oenb[27] *87:5 87.4911 
2 *87:5 *87:7 3.41 
3 *87:7 *87:9 150.09 
4 *87:9 *87:11 3.41 
5 *87:11 *87:13 2151.23 
6 *87:13 io_oeb[27] 28.6208 
*END

*D_NET *88 0.316333
*CONN
*P io_oeb[28] O
*P la_oenb[28] I
*CAP
1 io_oeb[28] 0.0188744
2 la_oenb[28] 0.00510583
3 *88:15 0.0188744
4 *88:13 0.092623
5 *88:11 0.092623
6 *88:9 0.0415633
7 *88:7 0.0415633
8 *88:5 0.00510583
9 *88:5 *299:201 0
*RES
1 la_oenb[28] *88:5 99.6339 
2 *88:5 *88:7 3.41 
3 *88:7 *88:9 124.794 
4 *88:9 *88:11 3.41 
5 *88:11 *88:13 1905.95 
6 *88:13 *88:15 3.41 
7 *88:15 io_oeb[28] 53.3168 
*END

*D_NET *89 0.296854
*CONN
*P io_oeb[29] O
*P la_oenb[29] I
*CAP
1 io_oeb[29] 0.00912597
2 la_oenb[29] 0.00421981
3 *89:13 0.0913414
4 *89:11 0.0822155
5 *89:9 0.052837
6 *89:7 0.052837
7 *89:5 0.00421981
8 *89:9 *299:193 5.80352e-05
9 *86:9 *89:9 0
10 *87:9 *89:9 0
*RES
1 la_oenb[29] *89:5 81.4196 
2 *89:5 *89:7 3.41 
3 *89:7 *89:9 153.477 
4 *89:9 *89:11 3.41 
5 *89:11 *89:13 1691.62 
6 *89:13 io_oeb[29] 30.7828 
*END

*D_NET *90 0.28351
*CONN
*P io_oeb[2] O
*P la_oenb[2] I
*CAP
1 io_oeb[2] 0.1157
2 la_oenb[2] 0.00278907
3 *90:15 0.1157
4 *90:13 0.0227949
5 *90:11 0.025584
6 io_oeb[2] *308:123 0
7 *90:11 *134:13 0.000470992
8 *90:11 *464:9 0.000470992
*RES
1 la_oenb[2] *90:11 45.8913 
2 *90:11 *90:13 467.018 
3 *90:13 *90:15 3.41 
4 *90:15 io_oeb[2] 347.421 
*END

*D_NET *91 0.272669
*CONN
*P io_oeb[30] O
*P la_oenb[30] I
*CAP
1 io_oeb[30] 0.0060036
2 la_oenb[30] 0.00543132
3 *91:13 0.0756964
4 *91:11 0.0696928
5 *91:9 0.0552068
6 *91:7 0.0552068
7 *91:5 0.00543132
8 *91:5 *299:209 0
*RES
1 la_oenb[30] *91:5 106.312 
2 *91:5 *91:7 3.41 
3 *91:7 *91:9 166.017 
4 *91:9 *91:11 3.41 
5 *91:11 *91:13 1434.2 
6 *91:13 io_oeb[30] 21.0538 
*END

*D_NET *92 0.253228
*CONN
*P io_oeb[31] O
*P la_oenb[31] I
*CAP
1 io_oeb[31] 0.034898
2 la_oenb[31] 0.00906658
3 *92:15 0.034898
4 *92:13 0.0547872
5 *92:11 0.0547872
6 *92:9 0.0277556
7 *92:7 0.0277556
8 *92:5 0.00906658
9 *92:9 *104:9 0
10 *92:9 *299:169 0.000212923
*RES
1 la_oenb[31] *92:5 179.777 
2 *92:5 *92:7 3.41 
3 *92:7 *92:9 81.1941 
4 *92:9 *92:11 3.41 
5 *92:11 *92:13 1127.59 
6 *92:13 *92:15 3.41 
7 *92:15 io_oeb[31] 105.205 
*END

*D_NET *93 0.232665
*CONN
*P io_oeb[32] O
*P la_oenb[32] I
*CAP
1 io_oeb[32] 0.00094928
2 la_oenb[32] 0.00602656
3 *93:13 0.0474046
4 *93:11 0.0464553
5 *93:9 0.0622662
6 *93:7 0.0622662
7 *93:5 0.00602656
8 *93:13 io_out[32] 0.00112721
9 *93:13 *132:67 0.000143263
*RES
1 la_oenb[32] *93:5 118.455 
2 *93:5 *93:7 3.41 
3 *93:7 *93:9 186.7 
4 *93:9 *93:11 3.41 
5 *93:11 *93:13 956.375 
6 *93:13 io_oeb[32] 5.9198 
*END

*D_NET *94 0.211685
*CONN
*P io_oeb[33] O
*P la_oenb[33] I
*CAP
1 io_oeb[33] 0.0635939
2 la_oenb[33] 0.0376018
3 *94:7 0.0635939
4 *94:5 0.0376018
5 io_oeb[33] *308:77 0.000885041
6 *94:5 *296:197 0.00330355
7 *94:5 *308:95 0.00510529
*RES
1 la_oenb[33] *94:5 841.562 
2 *94:5 *94:7 3.41 
3 *94:7 io_oeb[33] 191.901 
*END

*D_NET *95 0.19784
*CONN
*P io_oeb[34] O
*P la_oenb[34] I
*CAP
1 io_oeb[34] 0.0689651
2 la_oenb[34] 0.0299552
3 *95:7 0.0689651
4 *95:5 0.0299552
*RES
1 la_oenb[34] *95:5 609.027 
2 *95:5 *95:7 3.41 
3 *95:7 io_oeb[34] 194.712 
*END

*D_NET *96 0.168619
*CONN
*P io_oeb[35] O
*P la_oenb[35] I
*CAP
1 io_oeb[35] 0.0656582
2 la_oenb[35] 0.0186514
3 *96:7 0.0656582
4 *96:5 0.0186514
*RES
1 la_oenb[35] *96:5 376.491 
2 *96:5 *96:7 3.41 
3 *96:7 io_oeb[35] 197.522 
*END

*D_NET *97 0.153529
*CONN
*P io_oeb[36] O
*P la_oenb[36] I
*CAP
1 io_oeb[36] 0.0666072
2 la_oenb[36] 0.0101575
3 *97:7 0.0666072
4 *97:5 0.0101575
*RES
1 la_oenb[36] *97:5 201.634 
2 *97:5 *97:7 3.41 
3 *97:7 io_oeb[36] 200.261 
*END

*D_NET *98 0.171626
*CONN
*P io_oeb[37] O
*P la_oenb[37] I
*CAP
1 io_oeb[37] 0.0636584
2 la_oenb[37] 0.00160226
3 *98:7 0.0652607
4 io_oeb[37] *194:9 0
5 io_oeb[37] *299:201 0.00272633
6 io_oeb[37] *358:13 0.00088135
7 io_oeb[37] *464:9 0
8 *74:9 io_oeb[37] 0.000898618
9 *75:9 io_oeb[37] 0.0365983
*RES
1 la_oenb[37] *98:7 30.7939 
2 *98:7 io_oeb[37] 203.071 
*END

*D_NET *99 0.298886
*CONN
*P io_oeb[3] O
*P la_oenb[3] I
*CAP
1 io_oeb[3] 0.116045
2 la_oenb[3] 0.0333979
3 *99:7 0.116045
4 *99:5 0.0333979
*RES
1 la_oenb[3] *99:5 680.062 
2 *99:5 *99:7 3.41 
3 *99:7 io_oeb[3] 348.358 
*END

*D_NET *100 0.31598
*CONN
*P io_oeb[4] O
*P la_oenb[4] I
*CAP
1 io_oeb[4] 0.115119
2 la_oenb[4] 0.0420426
3 *100:7 0.115119
4 *100:5 0.0420426
5 io_oeb[4] *296:91 0.00143236
6 io_oeb[4] *308:69 0.000224056
7 *81:13 *100:5 0
*RES
1 la_oenb[4] *100:5 857.955 
2 *100:5 *100:7 3.41 
3 *100:7 io_oeb[4] 345.547 
*END

*D_NET *101 0.332551
*CONN
*P io_oeb[5] O
*P la_oenb[5] I
*CAP
1 io_oeb[5] 0.025012
2 la_oenb[5] 0.00780964
3 *101:15 0.025012
4 *101:13 0.0431384
5 *101:11 0.0431384
6 *101:9 0.0737958
7 *101:7 0.0737958
8 *101:5 0.00780964
9 *101:9 *299:177 0.000295751
10 io_oeb[0] *101:9 0.0327431
11 *73:9 *101:9 0
*RES
1 la_oenb[5] *101:5 149.42 
2 *101:5 *101:7 3.41 
3 *101:7 *101:9 266.766 
4 *101:9 *101:11 3.41 
5 *101:11 *101:13 886.554 
6 *101:13 *101:15 3.41 
7 *101:15 io_oeb[5] 76.0899 
*END

*D_NET *102 0.34618
*CONN
*P io_oeb[6] O
*P la_oenb[6] I
*CAP
1 io_oeb[6] 0.0409437
2 la_oenb[6] 0.00842761
3 *102:15 0.0409437
4 *102:13 0.0511717
5 *102:11 0.0511717
6 *102:9 0.0724578
7 *102:7 0.0724578
8 *102:5 0.00842761
9 *102:9 *103:9 0
10 *102:9 *299:169 0.000178591
11 *73:9 *102:9 0
*RES
1 la_oenb[6] *102:5 161.562 
2 *102:5 *102:7 3.41 
3 *102:7 *102:9 216.391 
4 *102:9 *102:11 3.41 
5 *102:11 *102:13 1052.3 
6 *102:13 *102:15 3.41 
7 *102:15 io_oeb[6] 123.654 
*END

*D_NET *103 0.368938
*CONN
*P io_oeb[7] O
*P la_oenb[7] I
*CAP
1 io_oeb[7] 0.0381565
2 la_oenb[7] 0.00850259
3 *103:15 0.0381565
4 *103:13 0.0623958
5 *103:11 0.0623958
6 *103:9 0.0742645
7 *103:7 0.0742645
8 *103:5 0.00850259
9 *103:5 *144:15 0
10 *103:5 *344:23 0
11 *103:9 *104:9 0
12 *103:9 *299:169 0.000176967
13 *103:13 *141:11 0.00212183
14 *102:9 *103:9 0
*RES
1 la_oenb[7] *103:5 167.634 
2 *103:5 *103:7 3.41 
3 *103:7 *103:9 222.301 
4 *103:9 *103:11 3.41 
5 *103:11 *103:13 1283.02 
6 *103:13 *103:15 3.41 
7 *103:15 io_oeb[7] 115.006 
*END

*D_NET *104 0.397572
*CONN
*P io_oeb[8] O
*P la_oenb[8] I
*CAP
1 io_oeb[8] 0.0366591
2 la_oenb[8] 0.0088079
3 *104:15 0.0366591
4 *104:13 0.0736871
5 *104:11 0.0736871
6 *104:9 0.079632
7 *104:7 0.079632
8 *104:5 0.0088079
9 *104:5 *282:37 0
10 *104:13 la_data_out[91] 0
11 *92:9 *104:9 0
12 *103:9 *104:9 0
*RES
1 la_oenb[8] *104:5 173.705 
2 *104:5 *104:7 3.41 
3 *104:7 *104:9 230.3 
4 *104:9 *104:11 3.41 
5 *104:11 *104:13 1514.34 
6 *104:13 *104:15 3.41 
7 *104:15 io_oeb[8] 104.196 
*END

*D_NET *105 0.41107
*CONN
*P io_oeb[9] O
*P la_oenb[9] I
*CAP
1 io_oeb[9] 0.0333197
2 la_oenb[9] 0.00935385
3 *105:15 0.0333197
4 *105:13 0.0846024
5 *105:11 0.0846024
6 *105:9 0.0772504
7 *105:7 0.0772504
8 *105:5 0.00935385
9 *105:5 *260:15 0.000345447
10 *105:5 *364:17 0
11 *105:9 *299:169 6.94747e-05
12 *105:9 *308:133 0
13 *105:9 *317:119 0.00160195
*RES
1 la_oenb[9] *105:5 186.455 
2 *105:5 *105:7 3.41 
3 *105:7 *105:9 230.804 
4 *105:9 *105:11 3.41 
5 *105:11 *105:13 1738.98 
6 *105:13 *105:15 3.41 
7 *105:15 io_oeb[9] 100.953 
*END

*D_NET *106 0.262325
*CONN
*P io_out[0] O
*I *537:rf_dac_i_out[0] O *D phase_099_top_integration
*CAP
1 io_out[0] 0.0400959
2 *537:rf_dac_i_out[0] 0.00408648
3 *106:11 0.0400959
4 *106:9 0.086086
5 *106:7 0.0901725
6 *106:7 *108:7 0.00151944
7 *106:9 *108:9 0.000268947
8 *106:9 *138:9 0
*RES
1 *537:rf_dac_i_out[0] *106:7 16.4055 
2 *106:7 *106:9 274.477 
3 *106:9 *106:11 3.41 
4 *106:11 io_out[0] 121.528 
*END

*D_NET *107 0.141245
*CONN
*P io_out[10] O
*I *537:rf_dac_i_out[10] O *D phase_099_top_integration
*CAP
1 io_out[10] 0.0018677
2 *537:rf_dac_i_out[10] 0.0405278
3 *107:9 0.0270085
4 *107:7 0.0251408
5 *107:5 0.0405278
6 *107:5 *108:7 0.00153621
7 *107:5 *143:7 0.00340131
8 *67:15 io_out[10] 0.00123462
*RES
1 *537:rf_dac_i_out[10] *107:5 128.59 
2 *107:5 *107:7 3.41 
3 *107:7 *107:9 80.3731 
4 *107:9 io_out[10] 9.5435 
*END

*D_NET *108 0.166385
*CONN
*P io_out[11] O
*I *537:rf_dac_i_out[11] O *D phase_099_top_integration
*CAP
1 io_out[11] 0.0400644
2 *537:rf_dac_i_out[11] 0.00329569
3 *108:11 0.0400644
4 *108:9 0.0381699
5 *108:7 0.0414656
6 *106:7 *108:7 0.00151944
7 *106:9 *108:9 0.000268947
8 *107:5 *108:7 0.00153621
*RES
1 *537:rf_dac_i_out[11] *108:7 16.5496 
2 *108:7 *108:9 121.495 
3 *108:9 *108:11 3.41 
4 *108:11 io_out[11] 121.384 
*END

*D_NET *109 0.190559
*CONN
*P io_out[12] O
*I *537:rf_dac_i_out[12] O *D phase_099_top_integration
*CAP
1 io_out[12] 0.0394272
2 *537:rf_dac_i_out[12] 0.00534827
3 *109:11 0.0394272
4 *109:9 0.0505041
5 *109:7 0.0558524
*RES
1 *537:rf_dac_i_out[12] *109:7 18.5675 
2 *109:7 *109:9 161.019 
3 *109:9 *109:11 3.41 
4 *109:11 io_out[12] 119.366 
*END

*D_NET *110 0.220844
*CONN
*P io_out[13] O
*I *537:rf_dac_i_out[13] O *D phase_099_top_integration
*CAP
1 io_out[13] 0.0404823
2 *537:rf_dac_i_out[13] 0.00569054
3 *110:11 0.0404823
4 *110:9 0.0630804
5 *110:7 0.068771
6 *110:7 *111:5 0.00233687
*RES
1 *537:rf_dac_i_out[13] *110:7 22.8915 
2 *110:7 *110:9 200.543 
3 *110:9 *110:11 3.41 
4 *110:11 io_out[13] 115.042 
*END

*D_NET *111 0.245204
*CONN
*P io_out[14] O
*I *537:rf_dac_i_out[14] O *D phase_099_top_integration
*CAP
1 io_out[14] 0.0197551
2 *537:rf_dac_i_out[14] 0.0239474
3 *111:11 0.0197551
4 *111:9 0.0776345
5 *111:7 0.0776345
6 *111:5 0.0239474
7 *111:5 *112:5 0
8 *111:5 *337:7 0.000192917
9 *110:7 *111:5 0.00233687
*RES
1 *537:rf_dac_i_out[14] *111:5 74.5404 
2 *111:5 *111:7 3.41 
3 *111:7 *111:9 241.558 
4 *111:9 *111:11 3.41 
5 *111:11 io_out[14] 59.983 
*END

*D_NET *112 0.211012
*CONN
*P io_out[15] O
*I *537:rf_dac_i_out[15] O *D phase_099_top_integration
*CAP
1 io_out[15] 0.0657391
2 *537:rf_dac_i_out[15] 0.0179166
3 *112:15 0.0657391
4 *112:13 0.0165439
5 *112:11 0.0165439
6 *112:9 0.00521019
7 *112:7 0.00521019
8 *112:5 0.0179166
9 *112:5 *337:7 0.000192917
10 *111:5 *112:5 0
*RES
1 *537:rf_dac_i_out[15] *112:5 53.0285 
2 *112:5 *112:7 3.41 
3 *112:7 *112:9 106.982 
4 *112:9 *112:11 3.41 
5 *112:11 *112:13 50.1333 
6 *112:13 *112:15 3.41 
7 *112:15 io_out[15] 1351.56 
*END

*D_NET *113 0.199031
*CONN
*P io_out[16] O
*I *537:rf_dac_q_out[0] O *D phase_099_top_integration
*CAP
1 io_out[16] 0.000631798
2 *537:rf_dac_q_out[0] 1.27254e-05
3 *113:11 0.0269168
4 *113:9 0.026285
5 *113:7 0.0497716
6 *113:5 0.0497843
7 *113:7 *322:17 0.000125731
8 io_oeb[17] *113:11 0.00696053
9 *36:9 *113:11 0.0376441
10 *62:19 *113:7 0.000167698
11 *77:25 *113:11 0.000731224
*RES
1 *537:rf_dac_q_out[0] *113:5 0.267857 
2 *113:5 *113:7 1021.95 
3 *113:7 *113:9 3.41 
4 *113:9 *113:11 115.498 
5 *113:11 io_out[16] 16.2225 
*END

*D_NET *114 0.162148
*CONN
*P io_out[17] O
*I *537:rf_dac_q_out[1] O *D phase_099_top_integration
*CAP
1 io_out[17] 0.00133795
2 *537:rf_dac_q_out[1] 0.00111268
3 *114:17 0.0500096
4 *114:15 0.0486717
5 *114:13 0.0174551
6 *114:11 0.0185677
7 *114:11 *115:13 0
8 *114:13 *115:13 0
9 *114:13 *323:13 0
10 *114:13 *331:11 0.00477882
11 *37:9 io_out[17] 0.000211622
12 *76:21 *114:17 0.0200024
*RES
1 *537:rf_dac_q_out[1] *114:11 21.7671 
2 *114:11 *114:13 57.9165 
3 *114:13 *114:15 3.41 
4 *114:15 *114:17 1001.91 
5 *114:17 io_out[17] 25.2988 
*END

*D_NET *115 0.10765
*CONN
*P io_out[18] O
*I *537:rf_dac_q_out[2] O *D phase_099_top_integration
*CAP
1 io_out[18] 0.00135867
2 *537:rf_dac_q_out[2] 0.00398497
3 *115:15 0.0497333
4 *115:13 0.0523596
5 *37:9 io_out[18] 0.000213419
6 *114:11 *115:13 0
7 *114:13 *115:13 0
*RES
1 *537:rf_dac_q_out[2] *115:13 38.0603 
2 *115:13 *115:15 995.839 
3 *115:15 io_out[18] 25.2988 
*END

*D_NET *116 0.144425
*CONN
*P io_out[19] O
*I *537:rf_dac_q_out[3] O *D phase_099_top_integration
*CAP
1 io_out[19] 0.0494079
2 *537:rf_dac_q_out[3] 0.00120071
3 *116:13 0.0580307
4 *116:9 0.00982348
5 *116:9 *118:9 0
6 *116:13 *118:11 0.0259624
*RES
1 *537:rf_dac_q_out[3] *116:9 23.66 
2 *116:9 *116:13 44.1747 
3 *116:13 io_out[19] 1016.42 
*END

*D_NET *117 0.235957
*CONN
*P io_out[1] O
*I *537:rf_dac_i_out[1] O *D phase_099_top_integration
*CAP
1 io_out[1] 0.0298174
2 *537:rf_dac_i_out[1] 0.0150313
3 *117:11 0.0298174
4 *117:9 0.0731298
5 *117:7 0.0881611
*RES
1 *537:rf_dac_i_out[1] *117:7 47.6824 
2 *117:7 *117:9 233.142 
3 *117:9 *117:11 3.41 
4 *117:11 io_out[1] 90.251 
*END

*D_NET *118 0.213959
*CONN
*P io_out[20] O
*I *537:rf_dac_q_out[4] O *D phase_099_top_integration
*CAP
1 io_out[20] 0.0494539
2 *537:rf_dac_q_out[4] 0.00107068
3 *118:13 0.0494539
4 *118:11 0.0145756
5 *118:9 0.0156462
6 *118:11 *119:11 0.0577964
7 *116:9 *118:9 0
8 *116:13 *118:11 0.0259624
*RES
1 *537:rf_dac_q_out[4] *118:9 21.8207 
2 *118:9 *118:11 91.2834 
3 *118:11 *118:13 3.41 
4 *118:13 io_out[20] 1017.03 
*END

*D_NET *119 0.286954
*CONN
*P io_out[21] O
*I *537:rf_dac_q_out[5] O *D phase_099_top_integration
*CAP
1 io_out[21] 0.0494288
2 *537:rf_dac_q_out[5] 0.00110622
3 *119:13 0.0494288
4 *119:11 0.0192002
5 *119:9 0.0203064
6 *119:11 *120:11 0.0896875
7 *119:11 *323:13 0
8 *118:11 *119:11 0.0577964
*RES
1 *537:rf_dac_q_out[5] *119:9 22.035 
2 *119:9 *119:11 140.937 
3 *119:11 *119:13 3.41 
4 *119:13 io_out[21] 1017.63 
*END

*D_NET *120 0.36282
*CONN
*P io_out[22] O
*I *537:rf_dac_q_out[6] O *D phase_099_top_integration
*CAP
1 io_out[22] 0.0511527
2 *537:rf_dac_q_out[6] 0.00110914
3 *120:13 0.0511527
4 *120:11 0.0237663
5 *120:9 0.0248754
6 *120:11 *121:11 0.121077
7 *120:11 *323:13 0
8 *119:11 *120:11 0.0896875
*RES
1 *537:rf_dac_q_out[6] *120:9 21.8386 
2 *120:9 *120:11 190.735 
3 *120:11 *120:13 3.41 
4 *120:13 io_out[22] 1018.24 
*END

*D_NET *121 0.34355
*CONN
*P io_out[23] O
*I *537:rf_dac_q_out[7] O *D phase_099_top_integration
*CAP
1 io_out[23] 0.0511906
2 *537:rf_dac_q_out[7] 0.00107247
3 *121:13 0.0511906
4 *121:11 0.0523929
5 *121:9 0.0534654
6 *121:11 *129:13 0.0131618
7 *121:11 *132:13 0
8 *121:11 *323:13 0
9 *64:23 *121:9 0
10 *120:11 *121:11 0.121077
*RES
1 *537:rf_dac_q_out[7] *121:9 20.8207 
2 *121:9 *121:11 239.597 
3 *121:11 *121:13 3.41 
4 *121:13 io_out[23] 1018.85 
*END

*D_NET *122 0.256747
*CONN
*P io_out[24] O
*I *537:rf_dac_q_out[8] O *D phase_099_top_integration
*CAP
1 io_out[24] 0.0838903
2 *537:rf_dac_q_out[8] 1.27254e-05
3 *122:9 0.0838903
4 *122:7 0.0434607
5 *122:5 0.0434735
6 *122:7 *123:7 0
7 *122:7 *129:11 0
8 *35:5 io_out[24] 0.00201899
*RES
1 *537:rf_dac_q_out[8] *122:5 0.267857 
2 *122:5 *122:7 890.196 
3 *122:7 *122:9 3.41 
4 *122:9 io_out[24] 256.689 
*END

*D_NET *123 0.244676
*CONN
*P io_out[25] O
*I *537:rf_dac_q_out[9] O *D phase_099_top_integration
*CAP
1 io_out[25] 0.0901556
2 *537:rf_dac_q_out[9] 1.27254e-05
3 *123:9 0.0901556
4 *123:7 0.0321696
5 *123:5 0.0321823
6 *122:7 *123:7 0
*RES
1 *537:rf_dac_q_out[9] *123:5 0.267857 
2 *123:5 *123:7 657.661 
3 *123:7 *123:9 3.41 
4 *123:9 io_out[25] 256.184 
*END

*D_NET *124 0.211839
*CONN
*P io_out[26] O
*I *537:rf_dac_q_out[10] O *D phase_099_top_integration
*CAP
1 io_out[26] 0.08433
2 *537:rf_dac_q_out[10] 1.34375e-05
3 *124:9 0.08433
4 *124:7 0.0214622
5 *124:5 0.0214756
6 *124:7 *272:9 0.000227662
*RES
1 *537:rf_dac_q_out[10] *124:5 0.267857 
2 *124:5 *124:7 424.518 
3 *124:7 *124:9 3.41 
4 *124:9 io_out[26] 255.176 
*END

*D_NET *125 0.197864
*CONN
*P io_out[27] O
*I *537:rf_dac_q_out[11] O *D phase_099_top_integration
*CAP
1 io_out[27] 0.0893372
2 *537:rf_dac_q_out[11] 1.27254e-05
3 *125:9 0.0893372
4 *125:7 0.00948751
5 *125:5 0.00950024
6 *125:7 *126:9 0.00018921
7 *125:7 *318:9 0
*RES
1 *537:rf_dac_q_out[11] *125:5 0.267857 
2 *125:5 *125:7 191.982 
3 *125:7 *125:9 3.41 
4 *125:9 io_out[27] 253.662 
*END

*D_NET *126 0.2736
*CONN
*P io_out[28] O
*I *537:rf_dac_q_out[12] O *D phase_099_top_integration
*CAP
1 io_out[28] 0.0451205
2 *537:rf_dac_q_out[12] 0.00053966
3 *126:17 0.0451205
4 *126:15 0.000835544
5 *126:13 0.000835544
6 *126:11 0.0163977
7 *126:9 0.0169374
8 *126:11 *272:11 0.0224538
9 *126:11 *277:11 0.0140136
10 *126:11 *279:11 0.0467058
11 *126:11 *289:11 0.00427757
12 *126:11 *290:11 5.44202e-05
13 *126:11 *291:11 0.00795994
14 *126:11 *317:17 0.00092557
15 *126:11 *333:11 0.00985737
16 *126:11 *363:17 0.00326931
17 *126:11 *363:19 0.00111102
18 *126:15 *277:15 0.00399561
19 *126:15 *286:15 0.00107273
20 *126:15 *333:25 0.00119893
21 *537:rf_adc_i_in[3] *126:11 0.00509584
22 *537:rf_adc_i_in[4] *126:11 0.002579
23 *537:rf_adc_i_in[9] *126:11 0.000811228
24 *30:21 *126:11 0.00473548
25 *37:13 *126:15 0.000741722
26 *41:21 *126:11 0.00375069
27 *52:21 *126:11 0.00472529
28 *64:23 *126:11 0.00828864
29 *125:7 *126:9 0.00018921
*RES
1 *537:rf_dac_q_out[12] *126:9 12.9279 
2 *126:9 *126:11 118.525 
3 *126:11 *126:13 3.41 
4 *126:13 *126:15 49.3036 
5 *126:15 *126:17 3.41 
6 *126:17 io_out[28] 135.401 
*END

*D_NET *127 0.275037
*CONN
*P io_out[29] O
*I *537:rf_dac_q_out[13] O *D phase_099_top_integration
*CAP
1 io_out[29] 0.0428658
2 *537:rf_dac_q_out[13] 0.000963841
3 *127:22 0.0428658
4 *127:20 0.0131241
5 *127:18 0.0131241
6 *127:16 0.0245459
7 *127:14 0.0255097
8 *127:14 *312:9 0.00126027
9 *127:14 *340:6 0.00235994
10 *127:16 *130:8 0.000755056
11 *127:16 *130:10 0.0791471
12 *127:16 *308:21 0
13 *127:16 *325:18 0.0285151
14 *127:16 *333:25 0
*RES
1 *537:rf_dac_q_out[13] *127:14 14.7921 
2 *127:14 *127:16 129.587 
3 *127:16 *127:18 3.41 
4 *127:18 *127:20 269.696 
5 *127:20 *127:22 3.41 
6 *127:22 io_out[29] 121.42 
*END

*D_NET *128 0.215283
*CONN
*P io_out[2] O
*I *537:rf_dac_i_out[2] O *D phase_099_top_integration
*CAP
1 io_out[2] 0.0304975
2 *537:rf_dac_i_out[2] 0.0145334
3 *128:11 0.0304975
4 *128:9 0.0626108
5 *128:7 0.0771442
6 *128:7 *142:11 0
*RES
1 *537:rf_dac_i_out[2] *128:7 45.5204 
2 *128:7 *128:9 199.264 
3 *128:9 *128:11 3.41 
4 *128:11 io_out[2] 92.413 
*END

*D_NET *129 0.263393
*CONN
*P io_out[30] O
*I *537:rf_dac_q_out[14] O *D phase_099_top_integration
*CAP
1 io_out[30] 0.0380551
2 *537:rf_dac_q_out[14] 0.000838548
3 *129:19 0.0380551
4 *129:17 0.0252797
5 *129:15 0.0252797
6 *129:13 0.0292106
7 *129:11 0.0300491
8 *129:11 *274:9 8.83655e-05
9 *129:13 *132:13 0.0290623
10 *129:13 *323:13 0.0343122
11 *121:11 *129:13 0.0131618
12 *122:7 *129:11 0
*RES
1 *537:rf_dac_q_out[14] *129:11 17.6957 
2 *129:11 *129:13 142.235 
3 *129:13 *129:15 3.41 
4 *129:15 *129:17 519.232 
5 *129:17 *129:19 3.41 
6 *129:19 io_out[30] 114.934 
*END

*D_NET *130 0.312693
*CONN
*P io_out[31] O
*I *537:rf_dac_q_out[15] O *D phase_099_top_integration
*CAP
1 io_out[31] 0.0012717
2 *537:rf_dac_q_out[15] 0.00183209
3 *130:14 0.0370774
4 *130:12 0.0358057
5 *130:10 0.0641529
6 *130:8 0.065985
7 *130:8 *325:18 0.00102827
8 *130:8 *338:18 0.00153097
9 *130:10 *299:17 0.0103651
10 *130:10 *325:16 0.00297011
11 *130:10 *333:25 0
12 *130:10 *338:16 0.000695358
13 *130:10 *340:6 0.000773559
14 *130:10 *344:19 0
15 *537:rf_adc_i_in[7] *130:10 0.000917644
16 *66:13 *130:10 0.000401987
17 *67:17 *130:8 0.00684131
18 *67:17 *130:10 0.00114181
19 *127:16 *130:8 0.000755056
20 *127:16 *130:10 0.0791471
*RES
1 *537:rf_dac_q_out[15] *130:8 14.5271 
2 *130:8 *130:10 243.812 
3 *130:10 *130:12 3.41 
4 *130:12 *130:14 735.982 
5 *130:14 io_out[31] 7.0008 
*END

*D_NET *131 0.356206
*CONN
*P io_out[32] O
*I *537:chip_ready_out O *D phase_099_top_integration
*CAP
1 io_out[32] 0.005744
2 *537:chip_ready_out 0.000830007
3 *131:13 0.118139
4 *131:11 0.112395
5 *131:9 0.0187711
6 *131:7 0.0196011
7 *131:7 *282:7 9.29487e-05
8 *131:7 *364:7 0
9 *131:9 la_data_out[81] 0.00852993
10 *131:9 *304:15 0.00922776
11 *131:9 *312:13 0.00566845
12 *131:9 *318:23 0.00566845
13 *131:9 *321:22 0.00788311
14 *131:9 *323:25 0.00823326
15 *131:9 *325:22 0.00823326
16 *131:9 *337:9 0.00566845
17 *131:9 *338:30 0.0142164
18 *131:9 *364:9 0.00566845
19 *131:13 *281:35 0
20 *131:13 *286:37 0
21 *131:13 *316:19 0
22 *131:13 *318:29 0.000353806
23 *537:rf_adc_q_in[14] *131:13 0.00015556
24 *78:23 *131:13 0
25 *80:25 *131:13 0
26 *93:13 io_out[32] 0.00112721
*RES
1 *537:chip_ready_out *131:7 5.1631 
2 *131:7 *131:9 79.5209 
3 *131:9 *131:11 3.41 
4 *131:11 *131:13 321.753 
5 *131:13 io_out[32] 25.1077 
*END

*D_NET *132 0.518613
*CONN
*P io_out[33] O
*P la_data_out[0] O
*P wbs_dat_o[0] O
*I *537:module_status_flags_out[0] O *D phase_099_top_integration
*CAP
1 io_out[33] 0.000964377
2 la_data_out[0] 0.000240441
3 wbs_dat_o[0] 0.000557003
4 *537:module_status_flags_out[0] 0.000759145
5 *132:67 0.00272815
6 *132:49 0.00972321
7 *132:47 0.00960962
8 *132:41 0.0116389
9 *132:39 0.0115383
10 *132:27 0.043937
11 *132:25 0.0452706
12 *132:21 0.0251736
13 *132:19 0.0250206
14 *132:17 0.0590761
15 *132:15 0.0590761
16 *132:13 0.0346117
17 *132:11 0.0353708
18 *132:13 *136:11 0
19 *132:13 *272:11 0
20 *132:13 *286:11 0.0213516
21 *132:13 *289:11 0.00234085
22 *132:13 *290:11 0.00101724
23 *132:13 *323:13 0.0261555
24 *132:13 *329:11 0.00493368
25 *132:41 *133:45 0
26 *132:41 *133:47 0.0325547
27 *132:41 *134:37 0
28 *132:41 *273:29 0.00785462
29 *132:49 wbs_dat_o[20] 0.0016553
30 *132:49 *144:15 0.000207292
31 *132:49 *273:29 0.00600242
32 *132:49 *274:23 0
33 *537:rf_adc_i_in[4] *132:13 0.00087601
34 *537:rf_adc_i_in[5] *132:13 0.00662325
35 *31:13 *132:13 0.00210496
36 *34:9 *132:11 0.000434121
37 *93:13 *132:67 0.000143263
38 *121:11 *132:13 0
39 *129:13 *132:13 0.0290623
*RES
1 *537:module_status_flags_out[0] *132:11 17.5171 
2 *132:11 *132:13 164.936 
3 *132:13 *132:15 3.41 
4 *132:15 *132:17 1215.62 
5 *132:17 *132:19 3.41 
6 *132:19 *132:21 70.8885 
7 *132:21 *132:25 6.41893 
8 *132:25 *132:27 891.562 
9 *132:27 wbs_dat_o[0] 11.3839 
10 *132:27 *132:39 3.94571 
11 *132:39 *132:41 59.4299 
12 *132:41 *132:47 10.0082 
13 *132:47 *132:49 179.196 
14 *132:49 la_data_out[0] 9.26786 
15 *132:25 *132:67 47.5975 
16 *132:67 io_out[33] 2.58187 
*END

*D_NET *133 0.391542
*CONN
*P la_data_out[1] O
*P wbs_dat_o[1] O
*P io_out[34] O
*I *537:module_status_flags_out[1] O *D phase_099_top_integration
*CAP
1 la_data_out[1] 0.000388846
2 wbs_dat_o[1] 0.000656737
3 io_out[34] 0.00397191
4 *537:module_status_flags_out[1] 9.24648e-05
5 *133:47 0.0107592
6 *133:45 0.012355
7 *133:27 0.0345548
8 *133:25 0.0319134
9 *133:17 0.00438058
10 *133:13 0.0786402
11 *133:11 0.0782315
12 *133:9 0.0129284
13 *133:7 0.0130208
14 *133:9 la_data_out[54] 0.0115591
15 *133:13 *299:111 0.002082
16 *133:45 *134:37 0.00109784
17 *133:47 *134:27 0.000193483
18 *133:47 *134:37 0.000589425
19 *133:47 *135:27 0.0012838
20 *133:47 *136:35 0.0415185
21 *133:47 *272:27 0.00126998
22 *133:47 *273:29 0.00808806
23 *133:47 *274:23 0.00838708
24 *133:47 *276:23 0.00102404
25 *85:13 *133:27 0
26 *132:41 *133:45 0
27 *132:41 *133:47 0.0325547
*RES
1 *537:module_status_flags_out[1] *133:7 1.60714 
2 *133:7 *133:9 366.839 
3 *133:9 *133:11 3.41 
4 *133:11 *133:13 236.39 
5 *133:13 *133:17 1.31757 
6 *133:17 io_out[34] 11.6623 
7 *133:17 *133:25 3.41 
8 *133:25 *133:27 655.839 
9 *133:27 wbs_dat_o[1] 13.3661 
10 *133:27 *133:45 20.1291 
11 *133:45 *133:47 85.0136 
12 *133:47 la_data_out[1] 10.7582 
*END

*D_NET *134 0.370763
*CONN
*P io_out[35] O
*P wbs_dat_o[2] O
*P la_data_out[2] O
*I *537:module_status_flags_out[2] O *D phase_099_top_integration
*CAP
1 io_out[35] 0.0055654
2 wbs_dat_o[2] 0.000657413
3 la_data_out[2] 0.000550077
4 *537:module_status_flags_out[2] 9.24648e-05
5 *134:51 0.0252753
6 *134:49 0.0206553
7 *134:37 0.00437134
8 *134:27 0.0111208
9 *134:25 0.0083523
10 *134:17 0.00213229
11 *134:13 0.0502097
12 *134:11 0.0486275
13 *134:9 0.0485793
14 *134:7 0.0486718
15 *134:13 *278:13 0
16 *134:13 *464:9 0
17 *134:27 wbs_dat_o[10] 0.00784661
18 *134:27 wbs_dat_o[13] 0.00487817
19 *134:27 wbs_dat_o[16] 0.00405831
20 *134:27 *135:27 0.0486266
21 *134:27 *135:37 0.000255108
22 *134:27 *136:43 0.000943556
23 *134:27 *278:23 0.0202676
24 *134:27 *322:35 0.000302271
25 *134:27 *333:37 0.000354236
26 *134:27 *344:29 0.000785816
27 *134:27 *355:39 0.000549639
28 *134:37 *135:37 0.00468259
29 *90:11 *134:13 0.000470992
30 *132:41 *134:37 0
31 *133:45 *134:37 0.00109784
32 *133:47 *134:27 0.000193483
33 *133:47 *134:37 0.000589425
*RES
1 *537:module_status_flags_out[2] *134:7 1.60714 
2 *134:7 *134:9 995.232 
3 *134:9 *134:11 3.41 
4 *134:11 *134:13 145.766 
5 *134:13 *134:17 32.0707 
6 *134:17 la_data_out[2] 9.77679 
7 *134:17 *134:25 3.41 
8 *134:25 *134:27 77.0502 
9 *134:27 *134:37 16.3146 
10 *134:37 wbs_dat_o[2] 13.1696 
11 *134:37 *134:49 19.0179 
12 *134:49 *134:51 404.946 
13 *134:51 io_out[35] 18.8918 
*END

*D_NET *135 0.545814
*CONN
*P wbs_dat_o[3] O
*P io_out[36] O
*P la_data_out[3] O
*I *537:module_status_flags_out[3] O *D phase_099_top_integration
*CAP
1 wbs_dat_o[3] 0.000632219
2 io_out[36] 0.00636809
3 la_data_out[3] 0.000638846
4 *537:module_status_flags_out[3] 0.000358324
5 *135:39 0.0189031
6 *135:37 0.0148588
7 *135:27 0.00996339
8 *135:25 0.00827188
9 *135:15 0.102998
10 *135:13 0.102359
11 *135:11 0.0146667
12 *135:9 0.015025
13 la_data_out[3] *205:7 0
14 *135:11 *136:11 0.082813
15 *135:11 *308:11 0.0499665
16 *135:11 *317:19 0.00489965
17 *135:11 *322:27 0.00615392
18 *135:11 *326:11 0.0059265
19 *135:15 *205:7 0
20 *135:27 wbs_dat_o[12] 0.00292222
21 *135:27 *136:35 0.00823139
22 *135:27 *276:23 0.02911
23 *135:27 *278:23 0.00086703
24 *135:37 *136:43 0.00410819
25 *135:37 *136:47 0.000340493
26 *135:37 *322:35 0.000584239
27 *537:rf_adc_i_in[9] *135:9 0
28 *133:47 *135:27 0.0012838
29 *134:27 *135:27 0.0486266
30 *134:27 *135:37 0.000255108
31 *134:37 *135:37 0.00468259
*RES
1 *537:module_status_flags_out[3] *135:9 9.07071 
2 *135:9 *135:11 132.578 
3 *135:11 *135:13 3.41 
4 *135:13 *135:15 2100.84 
5 *135:15 la_data_out[3] 10.9375 
6 *135:15 *135:25 3.41 
7 *135:25 *135:27 78.4555 
8 *135:27 *135:37 23.064 
9 *135:37 *135:39 248.446 
10 *135:39 io_out[36] 22.1348 
11 *135:37 wbs_dat_o[3] 12.1339 
*END

*D_NET *136 0.575835
*CONN
*P wbs_dat_o[4] O
*P io_out[37] O
*P la_data_out[4] O
*I *537:module_status_flags_out[4] O *D phase_099_top_integration
*CAP
1 wbs_dat_o[4] 0.000632706
2 io_out[37] 0.000904873
3 la_data_out[4] 0.000554702
4 *537:module_status_flags_out[4] 0.000479907
5 *136:53 0.00677907
6 *136:51 0.0058742
7 *136:49 0.00369764
8 *136:47 0.0038509
9 *136:43 0.00389528
10 *136:35 0.00970239
11 *136:33 0.00666584
12 *136:27 0.00136183
13 *136:25 0.00128907
14 *136:15 0.103002
15 *136:13 0.102448
16 *136:11 0.0218138
17 *136:9 0.0222937
18 *136:11 *272:11 0.0823184
19 *136:11 *281:11 0.00180655
20 *136:11 *326:11 0.0126722
21 *136:27 *275:29 0.00689781
22 *136:27 *276:23 0.00132865
23 *136:27 *282:39 0.0020053
24 *136:35 wbs_dat_o[12] 0.00292858
25 *136:35 *272:27 0.00530224
26 *136:35 *276:23 0.0239351
27 *136:43 *322:35 0.000919786
28 *136:43 *344:29 0.000595555
29 *136:43 *355:39 0.000573727
30 *31:13 *136:11 0
31 *41:21 *136:11 0.000675044
32 *52:21 *136:11 0.000675044
33 *64:23 *136:11 0
34 *132:13 *136:11 0
35 *133:47 *136:35 0.0415185
36 *134:27 *136:43 0.000943556
37 *135:11 *136:11 0.082813
38 *135:27 *136:35 0.00823139
39 *135:37 *136:43 0.00410819
40 *135:37 *136:47 0.000340493
*RES
1 *537:module_status_flags_out[4] *136:9 10.4993 
2 *136:9 *136:11 164.503 
3 *136:11 *136:13 3.41 
4 *136:13 *136:15 2101.9 
5 *136:15 la_data_out[4] 9.66071 
6 *136:15 *136:25 4.5 
7 *136:25 *136:27 65.0179 
8 *136:27 *136:33 8.79393 
9 *136:33 *136:35 64.8349 
10 *136:35 *136:43 23.2051 
11 *136:43 *136:47 3.96147 
12 *136:47 *136:49 72.8304 
13 *136:49 *136:51 4.5 
14 *136:51 *136:53 111.018 
15 *136:53 io_out[37] 10.6966 
16 *136:43 wbs_dat_o[4] 15.6154 
*END

*D_NET *137 0.191897
*CONN
*P io_out[3] O
*I *537:rf_dac_i_out[3] O *D phase_099_top_integration
*CAP
1 io_out[3] 0.026901
2 *537:rf_dac_i_out[3] 0.0179874
3 *137:11 0.026901
4 *137:9 0.0510599
5 *137:7 0.0510599
6 *137:5 0.0179874
*RES
1 *537:rf_dac_i_out[3] *137:5 52.9204 
2 *137:5 *137:7 3.41 
3 *137:7 *137:9 162.723 
4 *137:9 *137:11 3.41 
5 *137:11 io_out[3] 81.603 
*END

*D_NET *138 0.169212
*CONN
*P io_out[4] O
*I *537:rf_dac_i_out[4] O *D phase_099_top_integration
*CAP
1 io_out[4] 0.0406075
2 *537:rf_dac_i_out[4] 0.00408792
3 *138:11 0.0406075
4 *138:9 0.039666
5 *138:7 0.0437539
6 *138:7 *140:15 0
7 *138:7 *347:7 0.000488774
8 *106:9 *138:9 0
*RES
1 *537:rf_dac_i_out[4] *138:7 15.2524 
2 *138:7 *138:9 126.182 
3 *138:9 *138:11 3.41 
4 *138:11 io_out[4] 122.681 
*END

*D_NET *139 0.156589
*CONN
*P io_out[5] O
*I *537:rf_dac_i_out[5] O *D phase_099_top_integration
*CAP
1 io_out[5] 0.0386989
2 *537:rf_dac_i_out[5] 0.00914343
3 *139:11 0.0386989
4 *139:9 0.0304524
5 *139:7 0.0395959
6 *139:7 *140:15 0
*RES
1 *537:rf_dac_i_out[5] *139:7 28.2244 
2 *139:7 *139:9 96.5662 
3 *139:9 *139:11 3.41 
4 *139:11 io_out[5] 109.709 
*END

*D_NET *140 0.137748
*CONN
*P io_out[6] O
*I *537:rf_dac_i_out[6] O *D phase_099_top_integration
*CAP
1 io_out[6] 0.0421416
2 *537:rf_dac_i_out[6] 0.00633452
3 *140:19 0.0421416
4 *140:17 0.0203379
5 *140:15 0.0266724
6 *140:15 *314:15 0.000120169
7 *140:15 *338:30 0
8 *138:7 *140:15 0
9 *139:7 *140:15 0
*RES
1 *537:rf_dac_i_out[6] *140:15 27.186 
2 *140:15 *140:17 64.7127 
3 *140:17 *140:19 3.41 
4 *140:19 io_out[6] 119.366 
*END

*D_NET *141 0.11084
*CONN
*P io_out[7] O
*I *537:rf_dac_i_out[7] O *D phase_099_top_integration
*CAP
1 io_out[7] 0.0381752
2 *537:rf_dac_i_out[7] 0.00716062
3 *141:11 0.0471987
4 *141:7 0.0161841
5 *103:13 *141:11 0.00212183
*RES
1 *537:rf_dac_i_out[7] *141:7 22.8915 
2 *141:7 *141:11 32.4341 
3 *141:11 io_out[7] 115.042 
*END

*D_NET *142 0.0963679
*CONN
*P io_out[8] O
*I *537:rf_dac_i_out[8] O *D phase_099_top_integration
*CAP
1 io_out[8] 0.039475
2 *537:rf_dac_i_out[8] 0.00840857
3 *142:11 0.0478836
4 *66:5 *142:11 0.000600705
5 *128:7 *142:11 0
*RES
1 *537:rf_dac_i_out[8] *142:11 31.9321 
2 *142:11 io_out[8] 119.366 
*END

*D_NET *143 0.114786
*CONN
*P io_out[9] O
*I *537:rf_dac_i_out[9] O *D phase_099_top_integration
*CAP
1 io_out[9] 0.0351982
2 *537:rf_dac_i_out[9] 0.00809465
3 *143:11 0.0475976
4 *143:7 0.020494
5 *107:5 *143:7 0.00340131
*RES
1 *537:rf_dac_i_out[9] *143:7 31.5395 
2 *143:7 *143:11 42.7678 
3 *143:11 io_out[9] 106.394 
*END

*D_NET *144 0.438863
*CONN
*P la_data_out[98] O
*P la_data_in[0] I
*I *537:rst_n I *D phase_099_top_integration
*CAP
1 la_data_out[98] 0.0005407
2 la_data_in[0] 0.00373645
3 *537:rst_n 8.17782e-05
4 *144:39 0.023011
5 *144:37 0.0226762
6 *144:21 0.0512797
7 *144:19 0.0511979
8 *144:17 0.00643035
9 *144:15 0.00996089
10 *144:15 *183:9 0.0045434
11 *144:15 *260:15 2.83284e-06
12 *144:15 *273:29 0.0140686
13 *144:15 *280:33 0
14 *144:17 la_data_out[17] 0.000265784
15 *144:17 *155:9 0.00634052
16 *144:17 *216:17 0.0203181
17 *144:17 *238:17 0.00179588
18 *144:17 *260:17 0.00096759
19 *144:17 *260:25 0.00327102
20 *144:17 *275:29 0
21 *144:17 *278:23 0.000595302
22 *144:17 *279:43 0.00145223
23 *144:17 *279:45 0.0127172
24 *144:17 *282:31 0.00192224
25 *144:17 *282:39 0.000926621
26 *144:21 *289:23 0
27 *144:21 *296:109 0.00146871
28 *144:21 *299:169 0.000773159
29 *144:37 la_data_out[27] 0
30 *144:37 *260:25 5.634e-05
31 *144:39 *155:9 0.0715879
32 *144:39 *166:9 0.126668
33 *103:5 *144:15 0
34 *132:49 *144:15 0.000207292
*RES
1 la_data_in[0] *144:15 43.7045 
2 *144:15 *144:17 302.411 
3 *144:17 *144:19 4.5 
4 *144:19 *144:21 1023.31 
5 *144:21 *537:rst_n 1.60714 
6 *144:17 *144:37 11.8832 
7 *144:37 *144:39 197.798 
8 *144:39 la_data_out[98] 11.9725 
*END

*D_NET *155 0.290758
*CONN
*P la_data_out[108] O
*P la_data_in[10] I
*CAP
1 la_data_out[108] 0.000590234
2 la_data_in[10] 0.000567956
3 *155:9 0.0381664
4 *155:7 0.0381441
5 *155:7 la_data_out[10] 0
6 *155:7 *272:15 0
7 *155:9 *166:9 0.0111558
8 *155:9 *192:9 0.0807794
9 *155:9 *216:17 0.00473982
10 *155:9 *238:17 0.00190346
11 *155:9 *249:9 0.0180727
12 *155:9 *249:17 0.00123045
13 *155:9 *278:21 0.000233904
14 *155:9 *278:23 0.0112868
15 *155:9 *279:43 0.000112662
16 *155:9 *287:29 0.00584611
17 *144:17 *155:9 0.00634052
18 *144:39 *155:9 0.0715879
*RES
1 la_data_in[10] *155:7 13.1868 
2 *155:7 *155:9 273.252 
3 *155:9 la_data_out[108] 13.1868 
*END

*D_NET *166 0.378248
*CONN
*P la_data_out[109] O
*P la_data_in[11] I
*CAP
1 la_data_out[109] 0.000491483
2 la_data_in[11] 0.000442699
3 *166:9 0.0293692
4 *166:7 0.0293204
5 *166:9 *175:9 0.00042222
6 *166:9 *177:9 0.000694077
7 *166:9 *178:9 0.00399139
8 *166:9 *182:9 0.160693
9 *166:9 *192:9 0.000343407
10 *166:9 *216:15 0.00124244
11 *166:9 *238:15 0.000346922
12 *166:9 *249:9 0.00563611
13 *166:9 *274:23 0.00033923
14 *166:9 *275:29 0.000846895
15 *166:9 *276:21 0.000327706
16 *166:9 *276:23 0.00591821
17 *144:39 *166:9 0.126668
18 *155:9 *166:9 0.0111558
*RES
1 la_data_in[11] *166:7 11.3654 
2 *166:7 *166:9 273.18 
3 *166:9 la_data_out[109] 11.3654 
*END

*D_NET *175 0.483949
*CONN
*P la_data_out[110] O
*P la_data_in[12] I
*CAP
1 la_data_out[110] 0.000335349
2 la_data_in[12] 0.000292774
3 *175:9 0.0401673
4 *175:7 0.0401247
5 *175:9 *176:15 0.00173166
6 *175:9 *176:17 0.0324579
7 *175:9 *177:9 0.171397
8 *175:9 *179:9 0.0357699
9 *175:9 *180:15 0.00420419
10 *175:9 *180:17 0.0318892
11 *175:9 *181:9 0.0343766
12 *175:9 *183:9 0.0408146
13 *175:9 *184:9 0.00379805
14 *175:9 *216:15 0.00203146
15 *175:9 *271:17 0.0441353
16 *166:9 *175:9 0.00042222
*RES
1 la_data_in[12] *175:7 8.93679 
2 *175:7 *175:9 273.252 
3 *175:9 la_data_out[110] 8.93679 
*END

*D_NET *176 0.396589
*CONN
*P la_data_out[111] O
*P la_data_in[13] I
*CAP
1 la_data_out[111] 0.000320623
2 la_data_in[13] 0.000657515
3 *176:17 0.0225216
4 *176:15 0.0228585
5 *176:15 *177:7 4.26759e-05
6 *176:15 *183:9 0.000634923
7 *176:17 *177:9 0.00167557
8 *176:17 *179:9 0.00186848
9 *176:17 *180:17 0.15478
10 *176:17 *181:9 0.15704
11 *175:9 *176:15 0.00173166
12 *175:9 *176:17 0.0324579
*RES
1 la_data_in[13] *176:15 19.5335 
2 *176:15 *176:17 1541.95 
3 *176:17 la_data_out[111] 9.875 
*END

*D_NET *177 0.401784
*CONN
*P la_data_out[112] O
*P la_data_in[14] I
*CAP
1 la_data_out[112] 0.000364955
2 la_data_in[14] 0.000322957
3 *177:9 0.0269458
4 *177:7 0.0269038
5 *177:9 *178:9 0.173139
6 *177:9 *181:9 0.000297777
7 *177:9 *184:9 0
8 *166:9 *177:9 0.000694077
9 *175:9 *177:9 0.171397
10 *176:15 *177:7 4.26759e-05
11 *176:17 *177:9 0.00167557
*RES
1 la_data_in[14] *177:7 9.54393 
2 *177:7 *177:9 273.252 
3 *177:9 la_data_out[112] 9.54393 
*END

*D_NET *178 0.399302
*CONN
*P la_data_out[113] O
*P la_data_in[15] I
*CAP
1 la_data_out[113] 0.000390657
2 la_data_in[15] 0.000369203
3 *178:9 0.0267941
4 *178:7 0.0267726
5 *178:9 *182:9 0.167845
6 *178:9 *184:9 0
7 *166:9 *178:9 0.00399139
8 *177:9 *178:9 0.173139
*RES
1 la_data_in[15] *178:7 10.1511 
2 *178:7 *178:9 273.252 
3 *178:9 la_data_out[113] 10.1511 
*END

*D_NET *179 0.386871
*CONN
*P la_data_out[114] O
*P la_data_in[16] I
*CAP
1 la_data_out[114] 0.000274456
2 la_data_in[16] 0.000250022
3 *179:9 0.0265288
4 *179:7 0.0265044
5 *179:9 *180:15 0.000829186
6 *179:9 *181:9 0.162062
7 *179:9 *184:9 0.000344904
8 *179:9 *271:17 0.132439
9 *175:9 *179:9 0.0357699
10 *176:17 *179:9 0.00186848
*RES
1 la_data_in[16] *179:7 9.26786 
2 *179:7 *179:9 1557.14 
3 *179:9 la_data_out[114] 9.26786 
*END

*D_NET *180 0.301159
*CONN
*P la_data_out[115] O
*P la_data_in[17] I
*CAP
1 la_data_out[115] 0.000325441
2 la_data_in[17] 0.00156504
3 *180:17 0.0504056
4 *180:15 0.0516452
5 *180:15 *181:9 0.000244988
6 *180:15 *183:9 0.00153054
7 *180:15 *281:41 1.49949e-05
8 *180:17 *181:9 0.00372433
9 *175:9 *180:15 0.00420419
10 *175:9 *180:17 0.0318892
11 *176:17 *180:17 0.15478
12 *179:9 *180:15 0.000829186
*RES
1 la_data_in[17] *180:15 23.7286 
2 *180:15 *180:17 1519.77 
3 *180:17 la_data_out[115] 10.1786 
*END

*D_NET *181 0.400848
*CONN
*P la_data_out[116] O
*P la_data_in[18] I
*CAP
1 la_data_out[116] 0.000289309
2 la_data_in[18] 0.000282126
3 *181:9 0.0212693
4 *181:7 0.0212621
5 *181:7 *280:21 0
6 *175:9 *181:9 0.0343766
7 *176:17 *181:9 0.15704
8 *177:9 *181:9 0.000297777
9 *179:9 *181:9 0.162062
10 *180:15 *181:9 0.000244988
11 *180:17 *181:9 0.00372433
*RES
1 la_data_in[18] *181:7 9.57143 
2 *181:7 *181:9 1556.73 
3 *181:9 la_data_out[116] 9.57143 
*END

*D_NET *182 0.389537
*CONN
*P la_data_out[117] O
*P la_data_in[19] I
*CAP
1 la_data_out[117] 0.00040633
2 la_data_in[19] 0.000431831
3 *182:9 0.0300675
4 *182:7 0.030093
5 *182:9 *184:9 0
6 *182:9 *192:9 0
7 *166:9 *182:9 0.160693
8 *178:9 *182:9 0.167845
*RES
1 la_data_in[19] *182:7 10.7582 
2 *182:7 *182:9 273.252 
3 *182:9 la_data_out[117] 10.7582 
*END

*D_NET *183 0.279456
*CONN
*P la_data_out[99] O
*P la_data_in[1] I
*CAP
1 la_data_out[99] 0.000193134
2 la_data_in[1] 0.000156501
3 *183:9 0.0422929
4 *183:7 0.0422563
5 *183:9 *184:9 0.141121
6 *183:9 *216:15 0.000196557
7 *183:9 *260:15 0.001127
8 *183:9 *271:11 0.00375522
9 *183:9 *273:29 0.000833189
10 *183:9 *280:33 0
11 *144:15 *183:9 0.0045434
12 *175:9 *183:9 0.0408146
13 *176:15 *183:9 0.000634923
14 *180:15 *183:9 0.00153054
*RES
1 la_data_in[1] *183:7 6.50821 
2 *183:7 *183:9 273.252 
3 *183:9 la_data_out[99] 6.50821 
*END

*D_NET *184 0.380182
*CONN
*P la_data_out[118] O
*P la_data_in[20] I
*CAP
1 la_data_out[118] 0.000155286
2 la_data_in[20] 0.000133106
3 *184:9 0.0304906
4 *184:7 0.0304684
5 *184:9 *185:9 0.173187
6 *184:9 *271:11 0.00048333
7 *175:9 *184:9 0.00379805
8 *177:9 *184:9 0
9 *178:9 *184:9 0
10 *179:9 *184:9 0.000344904
11 *182:9 *184:9 0
12 *183:9 *184:9 0.141121
*RES
1 la_data_in[20] *184:7 5.90107 
2 *184:7 *184:9 273.18 
3 *184:9 la_data_out[118] 5.90107 
*END

*D_NET *185 0.399758
*CONN
*P la_data_out[119] O
*P la_data_in[21] I
*CAP
1 la_data_out[119] 0.000117439
2 la_data_in[21] 0.000101145
3 *185:9 0.0262616
4 *185:7 0.0262453
5 *185:9 *186:9 0.173181
6 *185:9 *271:11 0.00066415
7 *184:9 *185:9 0.173187
*RES
1 la_data_in[21] *185:7 5.29393 
2 *185:7 *185:9 273.252 
3 *185:9 la_data_out[119] 5.29393 
*END

*D_NET *186 0.400043
*CONN
*P la_data_out[120] O
*P la_data_in[22] I
*CAP
1 la_data_out[120] 7.95911e-05
2 la_data_in[22] 7.14384e-05
3 *186:9 0.0262315
4 *186:7 0.0262234
5 *186:9 *187:11 0.173321
6 *186:9 *271:11 0.000934218
7 *185:9 *186:9 0.173181
*RES
1 la_data_in[22] *186:7 4.68679 
2 *186:7 *186:9 273.252 
3 *186:9 la_data_out[120] 4.68679 
*END

*D_NET *187 0.399786
*CONN
*P la_data_out[121] O
*P la_data_in[23] I
*CAP
1 la_data_out[121] 0.000108203
2 la_data_in[23] 8.88893e-05
3 *187:11 0.0257318
4 *187:9 0.0257125
5 *187:11 *188:9 0.000954769
6 *187:11 *190:13 0.16998
7 *187:11 *271:11 0.00388846
8 *186:9 *187:11 0.173321
*RES
1 la_data_in[23] *187:9 5.02607 
2 *187:9 *187:11 273.54 
3 *187:11 la_data_out[121] 5.02607 
*END

*D_NET *188 0.29765
*CONN
*P la_data_out[122] O
*P la_data_in[24] I
*CAP
1 la_data_out[122] 0.000141354
2 la_data_in[24] 4.32496e-05
3 *188:9 0.0571719
4 *188:7 0.0570738
5 *188:9 *189:15 0.00178186
6 *188:9 *189:17 0.0070681
7 *188:9 *190:13 0.171508
8 *188:9 *271:11 0.00190661
9 *187:11 *188:9 0.000954769
*RES
1 la_data_in[24] *188:7 4.29393 
2 *188:7 *188:9 272.819 
3 *188:9 la_data_out[122] 5.11536 
*END

*D_NET *189 0.25355
*CONN
*P la_data_out[123] O
*P la_data_in[25] I
*CAP
1 la_data_out[123] 6.13413e-05
2 la_data_in[25] 0.000715326
3 *189:17 0.0556258
4 *189:15 0.0562798
5 *189:17 *190:13 0.000315274
6 *189:17 *191:11 0.131702
7 *188:9 *189:15 0.00178186
8 *188:9 *189:17 0.0070681
*RES
1 la_data_in[25] *189:15 16.0877 
2 *189:15 *189:17 1539.07 
3 *189:17 la_data_out[123] 5.66071 
*END

*D_NET *190 0.395689
*CONN
*P la_data_out[124] O
*P la_data_in[26] I
*CAP
1 la_data_out[124] 4.32496e-05
2 la_data_in[26] 0.00014963
3 *190:13 0.026793
4 *190:11 0.0268994
5 *187:11 *190:13 0.16998
6 *188:9 *190:13 0.171508
7 *189:17 *190:13 0.000315274
*RES
1 la_data_in[26] *190:11 6.9725 
2 *190:11 *190:13 273.252 
3 *190:13 la_data_out[124] 4.29393 
*END

*D_NET *191 0.272869
*CONN
*P la_data_out[125] O
*P la_data_in[27] I
*CAP
1 la_data_out[125] 0.000600162
2 la_data_in[27] 0.00010896
3 *191:19 0.00631748
4 *191:17 0.00648946
5 *191:11 0.0405531
6 *191:9 0.03989
7 *191:19 *193:9 0.00724717
8 *191:19 *260:25 0.00218063
9 *191:19 *271:25 0.0038317
10 *191:19 *295:53 0.0165239
11 *191:19 *296:227 0.0174246
12 *189:17 *191:11 0.131702
*RES
1 la_data_in[27] *191:9 5.66071 
2 *191:9 *191:11 1236.79 
3 *191:11 *191:17 21.5714 
4 *191:17 *191:19 321.304 
5 *191:19 la_data_out[125] 16.25 
*END

*D_NET *192 0.42923
*CONN
*P la_data_out[126] O
*P la_data_in[28] I
*CAP
1 la_data_out[126] 0.000543882
2 la_data_in[28] 0.000675784
3 *192:9 0.0394025
4 *192:7 0.0395344
5 *192:9 *193:9 0.169739
6 *192:9 *249:17 0.000918958
7 *192:9 *260:25 0.0321375
8 *192:9 *296:227 0.0651558
9 *155:9 *192:9 0.0807794
10 *166:9 *192:9 0.000343407
11 *182:9 *192:9 0
*RES
1 la_data_in[28] *192:7 14.4011 
2 *192:7 *192:9 273.252 
3 *192:9 la_data_out[126] 14.4011 
*END

*D_NET *193 0.45973
*CONN
*P la_data_out[127] O
*P la_data_in[29] I
*CAP
1 la_data_out[127] 0.000578121
2 la_data_in[29] 0.000720892
3 *193:9 0.0344704
4 *193:7 0.0346132
5 *193:9 *216:25 0.0279123
6 *193:9 *238:25 0.0265823
7 *193:9 *249:17 0.13304
8 *193:9 *271:25 0.0013617
9 *193:9 *294:23 0.0126388
10 *193:9 *295:53 0.0108262
11 *191:19 *193:9 0.00724717
12 *192:9 *193:9 0.169739
*RES
1 la_data_in[29] *193:7 15.0082 
2 *193:7 *193:9 273.18 
3 *193:9 la_data_out[127] 15.0082 
*END

*D_NET *194 0.234695
*CONN
*P la_data_out[100] O
*P la_data_in[2] I
*CAP
1 la_data_out[100] 0.00135898
2 la_data_in[2] 0.00139372
3 *194:9 0.0565465
4 *194:7 0.0565812
5 *194:9 la_data_out[39] 0
6 *194:9 *227:9 0
7 *194:9 *324:13 0.00129164
8 *194:9 *339:15 0.0133211
9 *194:9 *343:15 0.00409977
10 *194:9 *348:13 0.00254549
11 *194:9 *350:13 0.0464346
12 *194:9 *354:13 0.00295989
13 *194:9 *356:13 0
14 io_oeb[37] *194:9 0
15 *74:9 *194:9 0.0411002
16 *82:9 *194:9 0.00706182
17 *83:9 *194:9 0
*RES
1 la_data_in[2] *194:7 27.1511 
2 *194:7 *194:9 273.252 
3 *194:9 la_data_out[100] 27.1511 
*END

*D_NET *205 0.322801
*CONN
*P la_data_out[101] O
*P la_data_in[3] I
*CAP
1 la_data_out[101] 0.000915039
2 la_data_in[3] 0.00105647
3 *205:17 0.0301976
4 *205:15 0.0314438
5 *205:9 0.0206596
6 *205:7 0.0195548
7 *205:9 la_data_out[36] 0.00361884
8 *205:9 *227:9 0.0635505
9 *205:9 *284:31 0.017727
10 *205:9 *288:31 0.00102318
11 *205:9 *293:29 0
12 *205:9 *299:209 0.00149685
13 *205:9 *324:13 0
14 *205:15 la_data_out[36] 0.000690679
15 *205:15 *227:17 0.00134107
16 *205:15 *324:13 0
17 *205:17 *227:17 0.0974481
18 *205:17 *295:41 2.4775e-05
19 *205:17 *298:33 7.76655e-05
20 *205:17 *309:147 0.007923
21 *205:17 *332:21 0.01956
22 *205:17 *338:42 0.00217687
23 *205:17 *340:22 0.00158523
24 *205:17 *342:15 0
25 *205:17 *356:13 0
26 la_data_out[3] *205:7 0
27 *83:9 *205:9 0.000730081
28 *135:15 *205:7 0
*RES
1 la_data_in[3] *205:7 20.4725 
2 *205:7 *205:9 110.417 
3 *205:9 *205:15 8.13413 
4 *205:15 *205:17 155.315 
5 *205:17 la_data_out[101] 18.0439 
*END

*D_NET *216 0.396094
*CONN
*P la_data_out[102] O
*P la_data_in[4] I
*CAP
1 la_data_out[102] 0.000753757
2 la_data_in[4] 0.0040173
3 *216:25 0.0177051
4 *216:23 0.0171015
5 *216:17 0.00356344
6 *216:15 0.00743053
7 *216:15 la_data_out[13] 0
8 *216:15 *238:15 0.0051537
9 *216:15 *273:29 0.0131388
10 *216:15 *276:23 0.000986378
11 *216:17 *238:17 0.0157388
12 *216:23 la_data_out[25] 0
13 *216:25 *238:25 0.128968
14 *216:25 *249:17 0.00114182
15 *216:25 *292:41 0.00854108
16 *216:25 *295:43 0.0790943
17 *216:25 *295:53 0.0363197
18 *144:17 *216:17 0.0203181
19 *155:9 *216:17 0.00473982
20 *166:9 *216:15 0.00124244
21 *175:9 *216:15 0.00203146
22 *183:9 *216:15 0.000196557
23 *193:9 *216:25 0.0279123
*RES
1 la_data_in[4] *216:15 46.788 
2 *216:15 *216:17 191.518 
3 *216:17 *216:23 11.25 
4 *216:23 *216:25 1221.18 
5 *216:25 la_data_out[102] 16.5536 
*END

*D_NET *227 0.383295
*CONN
*P la_data_out[103] O
*P la_data_in[5] I
*CAP
1 la_data_out[103] 0.000870996
2 la_data_in[5] 0.00107479
3 *227:17 0.0217938
4 *227:15 0.0211307
5 *227:9 0.0172672
6 *227:7 0.0181342
7 *227:7 *322:31 0
8 *227:9 la_data_out[39] 0.0035248
9 *227:9 *324:13 0
10 *227:17 la_data_out[36] 0.00216087
11 *227:17 *294:13 0.0374834
12 *227:17 *294:23 0.0716706
13 *227:17 *298:39 0.0066908
14 *227:17 *329:19 0.00519571
15 *227:17 *330:19 0.00497926
16 *83:9 *227:9 0.00897806
17 *194:9 *227:9 0
18 *205:9 *227:9 0.0635505
19 *205:15 *227:17 0.00134107
20 *205:17 *227:17 0.0974481
*RES
1 la_data_in[5] *227:7 21.0796 
2 *227:7 *227:9 99.4269 
3 *227:9 *227:15 10.5879 
4 *227:15 *227:17 173.872 
5 *227:17 la_data_out[103] 17.4368 
*END

*D_NET *238 0.398534
*CONN
*P la_data_out[104] O
*P la_data_in[6] I
*CAP
1 la_data_out[104] 0.000722195
2 la_data_in[6] 0.00292103
3 *238:25 0.0179273
4 *238:23 0.0173531
5 *238:17 0.0036339
6 *238:15 0.00640689
7 *238:15 *274:23 0.00328852
8 *238:15 *276:23 0.00495904
9 *238:17 *249:9 0.00274349
10 *238:17 *260:17 0.0137352
11 *238:23 la_data_out[22] 0
12 *238:25 *249:17 0.00181044
13 *238:25 *260:25 0.136851
14 *238:25 *271:25 0.000922508
15 *238:25 *285:29 0.000216439
16 *238:25 *285:31 0.00139759
17 *238:25 *287:29 0.000235585
18 *238:25 *292:41 0.00160131
19 *238:25 *295:53 0.00131998
20 *82:7 *238:23 0
21 *144:17 *238:17 0.00179588
22 *155:9 *238:17 0.00190346
23 *166:9 *238:15 0.000346922
24 *193:9 *238:25 0.0265823
25 *216:15 *238:15 0.0051537
26 *216:17 *238:17 0.0157388
27 *216:25 *238:25 0.128968
*RES
1 la_data_in[6] *238:15 35.5303 
2 *238:15 *238:17 179.196 
3 *238:17 *238:23 11.25 
4 *238:23 *238:25 1295.93 
5 *238:25 la_data_out[104] 16.25 
*END

*D_NET *249 0.414734
*CONN
*P la_data_out[105] O
*P la_data_in[7] I
*CAP
1 la_data_out[105] 0.000754212
2 la_data_in[7] 0.0049867
3 *249:17 0.0316324
4 *249:15 0.0310988
5 *249:9 0.00520726
6 *249:9 *260:17 0.00493771
7 *249:9 *276:21 0.000353137
8 *249:9 *276:23 0.0130365
9 *249:9 *278:23 0.0029744
10 *249:15 la_data_out[20] 0
11 *249:15 *282:21 0
12 *249:17 *260:25 0.00168809
13 *249:17 *287:29 0.00916364
14 *249:17 *290:33 0.0142449
15 *249:17 *291:35 0.0029772
16 *249:17 *292:27 0.0677673
17 *249:17 *292:41 0.00321943
18 *249:17 *293:29 0.00180841
19 *249:17 *294:23 0.0332213
20 *249:17 *295:43 0.016504
21 *249:17 *331:23 0.00456415
22 *155:9 *249:9 0.0180727
23 *155:9 *249:17 0.00123045
24 *166:9 *249:9 0.00563611
25 *192:9 *249:17 0.000918958
26 *193:9 *249:17 0.13304
27 *216:25 *249:17 0.00114182
28 *238:17 *249:9 0.00274349
29 *238:25 *249:17 0.00181044
*RES
1 la_data_in[7] *249:9 49.2365 
2 *249:9 *249:15 9.98071 
3 *249:15 *249:17 236.642 
4 *249:17 la_data_out[105] 15.6154 
*END

*D_NET *260 0.384057
*CONN
*P la_data_out[106] O
*P la_data_in[8] I
*CAP
1 la_data_out[106] 0.000691737
2 la_data_in[8] 0.0010417
3 *260:25 0.0219057
4 *260:23 0.0213464
5 *260:17 0.00451964
6 *260:15 0.00542892
7 *260:15 *273:29 0.00303321
8 *260:17 *275:29 0.00235817
9 *260:23 *281:41 4.92889e-05
10 *260:25 *271:25 0.000632647
11 *260:25 *282:31 0.00161225
12 *260:25 *285:31 0.00284958
13 *260:25 *287:29 0.000885773
14 *260:25 *296:227 0.120401
15 *105:5 *260:15 0.000345447
16 *144:15 *260:15 2.83284e-06
17 *144:17 *260:17 0.00096759
18 *144:17 *260:25 0.00327102
19 *144:37 *260:25 5.634e-05
20 *183:9 *260:15 0.001127
21 *191:19 *260:25 0.00218063
22 *192:9 *260:25 0.0321375
23 *238:17 *260:17 0.0137352
24 *238:25 *260:25 0.136851
25 *249:9 *260:17 0.00493771
26 *249:17 *260:25 0.00168809
*RES
1 la_data_in[8] *260:15 25.4978 
2 *260:15 *260:17 153.321 
3 *260:17 *260:23 11.25 
4 *260:23 *260:25 1377.25 
5 *260:25 la_data_out[106] 15.9464 
*END

*D_NET *271 0.320952
*CONN
*P la_data_out[107] O
*P la_data_in[9] I
*CAP
1 la_data_out[107] 0.000738709
2 la_data_in[9] 0.000178842
3 *271:25 0.00149651
4 *271:23 0.00125513
5 *271:17 0.0414121
6 *271:15 0.0411864
7 *271:11 0.00851941
8 *271:7 0.00842661
9 *271:11 *280:33 0.0162714
10 *271:11 *281:51 0.000595555
11 *271:15 la_data_out[25] 0
12 *271:25 *295:53 0.00591738
13 *175:9 *271:17 0.0441353
14 *179:9 *271:17 0.132439
15 *183:9 *271:11 0.00375522
16 *184:9 *271:11 0.00048333
17 *185:9 *271:11 0.00066415
18 *186:9 *271:11 0.000934218
19 *187:11 *271:11 0.00388846
20 *188:9 *271:11 0.00190661
21 *191:19 *271:25 0.0038317
22 *193:9 *271:25 0.0013617
23 *238:25 *271:25 0.000922508
24 *260:25 *271:25 0.000632647
*RES
1 la_data_in[9] *271:7 5.93679 
2 *271:7 *271:11 47.7059 
3 *271:11 *271:15 9.02679 
4 *271:15 *271:17 1246.23 
5 *271:17 *271:23 16.7143 
6 *271:23 *271:25 55.9821 
7 *271:25 la_data_out[107] 16.5536 
*END

*D_NET *272 0.518462
*CONN
*P wbs_dat_o[10] O
*P la_data_out[10] O
*I *537:module_status_flags_out[10] O *D phase_099_top_integration
*CAP
1 wbs_dat_o[10] 0.00229532
2 la_data_out[10] 0.000572285
3 *537:module_status_flags_out[10] 0.000454776
4 *272:27 0.00951583
5 *272:25 0.00722051
6 *272:15 0.103207
7 *272:13 0.102635
8 *272:11 0.0170355
9 *272:9 0.0174903
10 wbs_dat_o[10] wbs_dat_o[11] 0.000984757
11 wbs_dat_o[10] wbs_dat_o[12] 0.0045937
12 wbs_dat_o[10] wbs_dat_o[13] 2.24813e-05
13 wbs_dat_o[10] *322:35 0.000333934
14 wbs_dat_o[10] *344:29 0.000524885
15 wbs_dat_o[10] *355:39 0.000504986
16 *272:11 *281:11 0.0205958
17 *272:11 *290:11 0
18 *272:11 *317:17 0.00352407
19 *272:11 *322:19 0.0101821
20 *272:11 *363:17 0.000356995
21 *272:27 *274:23 0.0428517
22 *272:27 *275:29 0.0392677
23 *272:27 *276:23 0.0033734
24 *272:27 *344:29 0
25 *537:rf_adc_i_in[3] *272:11 0.00977623
26 *537:rf_adc_i_in[9] *272:11 0.00145084
27 *52:21 *272:11 0.000106017
28 *64:23 *272:11 0.000167073
29 *124:7 *272:9 0.000227662
30 *126:11 *272:11 0.0224538
31 *132:13 *272:11 0
32 *133:47 *272:27 0.00126998
33 *134:27 wbs_dat_o[10] 0.00784661
34 *136:11 *272:11 0.0823184
35 *136:35 *272:27 0.00530224
36 *155:7 la_data_out[10] 0
37 *155:7 *272:15 0
*RES
1 *537:module_status_flags_out[10] *272:9 11.5171 
2 *272:9 *272:11 128.542 
3 *272:11 *272:13 3.41 
4 *272:13 *272:15 2103.12 
5 *272:15 la_data_out[10] 9.875 
6 *272:15 *272:25 4.5 
7 *272:25 *272:27 428.5 
8 *272:27 wbs_dat_o[10] 37.5 
*END

*D_NET *273 0.29776
*CONN
*P wbs_dat_o[11] O
*P la_data_out[11] O
*I *537:module_status_flags_out[11] O *D phase_099_top_integration
*CAP
1 wbs_dat_o[11] 0.00163871
2 la_data_out[11] 0.000353974
3 *537:module_status_flags_out[11] 0.000960948
4 *273:29 0.0172389
5 *273:27 0.0156002
6 *273:17 0.0499462
7 *273:15 0.0495922
8 *273:13 0.0490931
9 *273:11 0.050054
10 wbs_dat_o[11] wbs_dat_o[12] 0.00103126
11 wbs_dat_o[11] *322:35 0.000350335
12 wbs_dat_o[11] *344:29 0.000751966
13 wbs_dat_o[11] *355:39 0.0014545
14 *273:11 *284:11 0
15 *273:13 *276:13 0
16 *273:13 *285:21 0
17 *273:13 *311:23 0
18 *273:13 *313:15 0
19 *273:13 *455:27 0
20 *273:29 wbs_dat_o[20] 0.00478092
21 *273:29 *276:23 0.000909134
22 *273:29 *280:33 0
23 wbs_dat_o[10] wbs_dat_o[11] 0.000984757
24 *537:rf_adc_q_in[11] *273:13 0
25 *70:5 la_data_out[11] 0
26 *70:5 *273:17 0
27 *132:41 *273:29 0.00785462
28 *132:49 *273:29 0.00600242
29 *133:47 *273:29 0.00808806
30 *144:15 *273:29 0.0140686
31 *183:9 *273:29 0.000833189
32 *216:15 *273:29 0.0131388
33 *260:15 *273:29 0.00303321
*RES
1 *537:module_status_flags_out[11] *273:11 20.9279 
2 *273:11 *273:13 142.811 
3 *273:13 *273:15 3.41 
4 *273:15 *273:17 1012.23 
5 *273:17 la_data_out[11] 6.47321 
6 *273:17 *273:27 3.41 
7 *273:27 *273:29 83.8605 
8 *273:29 wbs_dat_o[11] 32.3956 
*END

*D_NET *274 0.466211
*CONN
*P la_data_out[12] O
*P wbs_dat_o[12] O
*I *537:module_status_flags_out[12] O *D phase_099_top_integration
*CAP
1 la_data_out[12] 0.000532323
2 wbs_dat_o[12] 0.00191922
3 *537:module_status_flags_out[12] 0.000286751
4 *274:23 0.0163704
5 *274:21 0.0162752
6 *274:15 0.102506
7 *274:13 0.101214
8 *274:11 0.0168851
9 *274:9 0.0171719
10 la_data_out[12] *275:29 0.000172536
11 wbs_dat_o[12] wbs_dat_o[13] 0.00260281
12 wbs_dat_o[12] wbs_dat_o[16] 6.51414e-05
13 wbs_dat_o[12] *322:35 0.000951655
14 wbs_dat_o[12] *344:29 0.00173389
15 wbs_dat_o[12] *355:39 0.000226391
16 *274:11 *296:9 0.00650302
17 *274:11 *299:15 0.00138231
18 *274:11 *312:9 0.00992569
19 *274:11 *317:19 0.0109697
20 *274:11 *318:11 0.00255177
21 *274:11 *322:27 0.0530141
22 *274:11 *338:16 0.000714566
23 *274:11 *344:11 0.00425175
24 *274:11 *344:19 0.0193157
25 *274:11 *351:17 0.0077063
26 *274:23 *275:29 0.00176768
27 *274:23 *276:23 0.00276512
28 wbs_dat_o[10] wbs_dat_o[12] 0.0045937
29 wbs_dat_o[11] wbs_dat_o[12] 0.00103126
30 *129:11 *274:9 8.83655e-05
31 *132:49 *274:23 0
32 *133:47 *274:23 0.00838708
33 *135:27 wbs_dat_o[12] 0.00292222
34 *136:35 wbs_dat_o[12] 0.00292858
35 *166:9 *274:23 0.00033923
36 *238:15 *274:23 0.00328852
37 *272:27 *274:23 0.0428517
*RES
1 *537:module_status_flags_out[12] *274:9 7.87429 
2 *274:9 *274:11 125.155 
3 *274:11 *274:13 3.41 
4 *274:13 *274:15 2078.23 
5 *274:15 *274:21 26.7054 
6 *274:21 *274:23 433.839 
7 *274:23 wbs_dat_o[12] 44.0491 
8 *274:21 la_data_out[12] 15.3036 
*END

*D_NET *275 0.428058
*CONN
*P wbs_dat_o[13] O
*P la_data_out[13] O
*I *537:module_status_flags_out[13] O *D phase_099_top_integration
*CAP
1 wbs_dat_o[13] 0.00254246
2 la_data_out[13] 0.000458423
3 *537:module_status_flags_out[13] 0.000307857
4 *275:29 0.0135345
5 *275:27 0.010992
6 *275:19 0.0492925
7 *275:17 0.0488341
8 *275:15 0.0620148
9 *275:13 0.0620148
10 *275:11 0.00693486
11 *275:9 0.00724272
12 wbs_dat_o[13] wbs_dat_o[14] 0.00392817
13 wbs_dat_o[13] wbs_dat_o[16] 0.00366764
14 wbs_dat_o[13] *277:41 0.00043013
15 wbs_dat_o[13] *322:35 0.000573196
16 wbs_dat_o[13] *333:37 0.000392518
17 wbs_dat_o[13] *344:29 0.000599532
18 wbs_dat_o[13] *355:39 0.000902885
19 *275:9 *295:31 0.000246133
20 *275:9 *355:7 3.61244e-05
21 *275:11 *293:9 0.00654834
22 *275:11 *295:31 0.00950653
23 *275:11 *302:9 0.00794008
24 *275:11 *317:31 0.0201327
25 *275:11 *320:15 0.0383462
26 *275:11 *326:15 0.000921304
27 *275:15 *276:13 0
28 *275:15 *282:13 0
29 *275:15 *299:53 0.000258976
30 *275:15 *308:43 0.000307649
31 *275:15 *337:15 0
32 *275:29 *276:23 0.00784518
33 *275:29 *277:33 0
34 *275:29 *282:39 0.00249117
35 *275:29 *344:29 0
36 la_data_out[12] *275:29 0.000172536
37 wbs_dat_o[10] wbs_dat_o[13] 2.24813e-05
38 wbs_dat_o[12] wbs_dat_o[13] 0.00260281
39 *134:27 wbs_dat_o[13] 0.00487817
40 *136:27 *275:29 0.00689781
41 *144:17 *275:29 0
42 *166:9 *275:29 0.000846895
43 *216:15 la_data_out[13] 0
44 *260:17 *275:29 0.00235817
45 *272:27 *275:29 0.0392677
46 *274:23 *275:29 0.00176768
*RES
1 *537:module_status_flags_out[13] *275:9 3.9082 
2 *275:9 *275:11 501.018 
3 *275:11 *275:13 3.41 
4 *275:13 *275:15 187.132 
5 *275:15 *275:17 3.41 
6 *275:17 *275:19 997.205 
7 *275:19 la_data_out[13] 8.41071 
8 *275:19 *275:27 4.5 
9 *275:27 *275:29 419.054 
10 *275:29 wbs_dat_o[13] 39.8559 
*END

*D_NET *276 0.330557
*CONN
*P la_data_out[14] O
*P wbs_dat_o[14] O
*I *537:module_status_flags_out[14] O *D phase_099_top_integration
*CAP
1 la_data_out[14] 0.000464504
2 wbs_dat_o[14] 0.00221849
3 *537:module_status_flags_out[14] 0.00124434
4 *276:23 0.0115973
5 *276:21 0.00988589
6 *276:17 0.0491726
7 *276:15 0.0491301
8 *276:13 0.0455181
9 *276:11 0.0467624
10 wbs_dat_o[14] wbs_dat_o[16] 0.00075939
11 wbs_dat_o[14] wbs_dat_o[17] 0.00210939
12 wbs_dat_o[14] *277:41 0.000318989
13 wbs_dat_o[14] *333:37 0.000337565
14 wbs_dat_o[14] *355:39 0.00738668
15 *276:11 *294:7 0
16 *276:11 *294:9 0
17 *276:13 *299:39 0.00111976
18 *276:13 *308:43 0.000234883
19 *276:23 *278:23 0.00249723
20 wbs_dat_o[13] wbs_dat_o[14] 0.00392817
21 *73:5 *276:17 0
22 *133:47 *276:23 0.00102404
23 *135:27 *276:23 0.02911
24 *136:27 *276:23 0.00132865
25 *136:35 *276:23 0.0239351
26 *166:9 *276:21 0.000327706
27 *166:9 *276:23 0.00591821
28 *216:15 *276:23 0.000986378
29 *238:15 *276:23 0.00495904
30 *249:9 *276:21 0.000353137
31 *249:9 *276:23 0.0130365
32 *272:27 *276:23 0.0033734
33 *273:13 *276:13 0
34 *273:29 *276:23 0.000909134
35 *274:23 *276:23 0.00276512
36 *275:15 *276:13 0
37 *275:29 *276:23 0.00784518
*RES
1 *537:module_status_flags_out[14] *276:11 26.9993 
2 *276:11 *276:13 133.154 
3 *276:13 *276:15 3.41 
4 *276:15 *276:17 1003.12 
5 *276:17 *276:21 3.96147 
6 *276:21 *276:23 76.3656 
7 *276:23 wbs_dat_o[14] 37.925 
8 *276:21 la_data_out[14] 11.9725 
*END

*D_NET *277 0.523564
*CONN
*P la_data_out[15] O
*P wbs_dat_o[15] O
*I *537:module_status_flags_out[15] O *D phase_099_top_integration
*CAP
1 la_data_out[15] 0.000690991
2 wbs_dat_o[15] 0.000685819
3 *537:module_status_flags_out[15] 0.000658777
4 *277:41 0.00355319
5 *277:39 0.00297483
6 *277:33 0.00633332
7 *277:31 0.00691685
8 *277:29 0.0499888
9 *277:27 0.0508262
10 *277:15 0.0216123
11 *277:13 0.0207749
12 *277:11 0.0115843
13 *277:9 0.012243
14 la_data_out[15] *279:45 0.000392392
15 la_data_out[15] *282:31 0.00040105
16 *277:11 *281:11 0.00126512
17 *277:11 *291:11 0.0191408
18 *277:11 *333:11 0.0242116
19 *277:11 *363:19 0.000278735
20 *277:15 *279:15 0.0351655
21 *277:15 *286:15 0
22 *277:27 *279:35 0.000413387
23 *277:27 *281:35 0.00019056
24 *277:27 *286:37 0.00229119
25 *277:27 *299:39 0.000926625
26 *277:29 *299:53 0.000791696
27 *277:33 wbs_dat_o[16] 0.000358099
28 *277:33 *278:23 0.00846793
29 *277:33 *279:45 0.0373008
30 *277:33 *282:31 0.0111004
31 *277:33 *282:39 0.00102854
32 *277:33 *285:31 0.000417066
33 *277:33 *344:27 0.000303375
34 *277:33 *344:29 0.0299669
35 *277:39 wbs_dat_o[21] 0
36 *277:41 wbs_dat_o[17] 0.0014514
37 *277:41 *333:37 0.00961037
38 wbs_dat_o[13] *277:41 0.00043013
39 wbs_dat_o[14] *277:41 0.000318989
40 *537:rf_adc_q_in[0] *277:27 0
41 *537:rf_adc_q_in[10] *277:27 5.59682e-05
42 *537:rf_adc_q_in[4] *277:29 1.8957e-06
43 *537:rf_adc_q_in[5] *277:27 0.000533918
44 *537:rf_adc_q_in[5] *277:29 2.58001e-05
45 *537:rf_adc_q_in[6] *277:29 0
46 *30:21 *277:11 0.0193069
47 *37:13 *277:15 0.0192404
48 *38:9 *277:27 0.00116981
49 *41:21 *277:11 0.0201276
50 *42:13 *277:15 0
51 *51:9 *277:15 0.0697134
52 *52:21 *277:11 0.000313076
53 *126:11 *277:11 0.0140136
54 *126:15 *277:15 0.00399561
55 *275:29 *277:33 0
*RES
1 *537:module_status_flags_out[15] *277:9 14.5804 
2 *277:9 *277:11 645.768 
3 *277:11 *277:13 4.5 
4 *277:13 *277:15 1077.96 
5 *277:15 *277:27 13.1652 
6 *277:27 *277:29 1023.31 
7 *277:29 *277:31 4.5 
8 *277:31 *277:33 407.143 
9 *277:33 *277:39 10.3393 
10 *277:39 *277:41 90.8929 
11 *277:41 wbs_dat_o[15] 16.5536 
12 *277:31 la_data_out[15] 19.1607 
*END

*D_NET *278 0.303471
*CONN
*P la_data_out[16] O
*P wbs_dat_o[16] O
*I *537:module_status_flags_out[16] O *D phase_099_top_integration
*CAP
1 la_data_out[16] 0.000608302
2 wbs_dat_o[16] 0.00325764
3 *537:module_status_flags_out[16] 8.43122e-05
4 *278:23 0.0125074
5 *278:21 0.0117532
6 *278:13 0.0341167
7 *278:11 0.0322215
8 *278:9 0.048277
9 *278:7 0.0483613
10 wbs_dat_o[16] wbs_dat_o[17] 0.00926162
11 wbs_dat_o[16] *322:35 0.00226765
12 wbs_dat_o[16] *344:29 0.00199621
13 *278:21 *287:29 0.000149961
14 *278:23 wbs_dat_o[17] 0.00195706
15 *278:23 wbs_dat_o[27] 0.00753411
16 *278:23 *279:43 0.00025229
17 *278:23 *279:45 0.00728096
18 *278:23 *282:39 0.00610343
19 *278:23 *287:29 0.0185426
20 *278:23 *322:35 0.000217292
21 *278:23 *344:29 0.000249963
22 *278:23 *355:39 0.000371475
23 wbs_dat_o[12] wbs_dat_o[16] 6.51414e-05
24 wbs_dat_o[13] wbs_dat_o[16] 0.00366764
25 wbs_dat_o[14] wbs_dat_o[16] 0.00075939
26 *75:7 *278:21 0
27 *134:13 *278:13 0
28 *134:27 wbs_dat_o[16] 0.00405831
29 *134:27 *278:23 0.0202676
30 *135:27 *278:23 0.00086703
31 *144:17 *278:23 0.000595302
32 *155:9 *278:21 0.000233904
33 *155:9 *278:23 0.0112868
34 *249:9 *278:23 0.0029744
35 *276:23 *278:23 0.00249723
36 *277:33 wbs_dat_o[16] 0.000358099
37 *277:33 *278:23 0.00846793
*RES
1 *537:module_status_flags_out[16] *278:7 1.60714 
2 *278:7 *278:9 989.161 
3 *278:9 *278:11 3.41 
4 *278:11 *278:13 92.9409 
5 *278:13 *278:21 41.3523 
6 *278:21 *278:23 70.4922 
7 *278:23 wbs_dat_o[16] 34.3597 
8 *278:21 la_data_out[16] 13.7939 
*END

*D_NET *279 0.523077
*CONN
*P la_data_out[17] O
*P wbs_dat_o[17] O
*I *537:module_status_flags_out[17] O *D phase_099_top_integration
*CAP
1 la_data_out[17] 0.000715923
2 wbs_dat_o[17] 0.00378748
3 *537:module_status_flags_out[17] 0.00050218
4 *279:45 0.00910179
5 *279:43 0.00574651
6 *279:39 0.00114812
7 *279:37 0.0500955
8 *279:35 0.0516948
9 *279:15 0.0191452
10 *279:13 0.0175459
11 *279:11 0.00679228
12 *279:9 0.00729446
13 la_data_out[17] *282:31 0.000487985
14 wbs_dat_o[17] wbs_dat_o[24] 0
15 wbs_dat_o[17] *322:35 0.000600035
16 wbs_dat_o[17] *333:37 0.00170408
17 wbs_dat_o[17] *344:29 0.000643716
18 wbs_dat_o[17] *355:39 0.0055523
19 *279:9 *317:17 0.000526252
20 *279:11 *289:11 0.0460041
21 *279:11 *290:11 0.000385423
22 *279:11 *291:11 0.0011872
23 *279:15 *286:15 0
24 *279:35 *281:35 0.00642593
25 *279:35 *286:37 0.00276045
26 *279:35 *308:43 3.55717e-05
27 *279:37 *299:73 0
28 *279:43 *282:31 0.0026323
29 *279:45 *282:31 0.000125367
30 *279:45 *282:39 0.0139444
31 la_data_out[15] *279:45 0.000392392
32 wbs_dat_o[14] wbs_dat_o[17] 0.00210939
33 wbs_dat_o[16] wbs_dat_o[17] 0.00926162
34 *38:9 *279:35 9.32361e-05
35 *39:13 *279:15 7.29243e-05
36 *42:13 *279:15 5.39189e-05
37 *77:21 *279:15 0.0215228
38 *78:25 *279:15 0.0879104
39 *126:11 *279:11 0.0467058
40 *144:17 la_data_out[17] 0.000265784
41 *144:17 *279:43 0.00145223
42 *144:17 *279:45 0.0127172
43 *155:9 *279:43 0.000112662
44 *277:15 *279:15 0.0351655
45 *277:27 *279:35 0.000413387
46 *277:33 *279:45 0.0373008
47 *277:41 wbs_dat_o[17] 0.0014514
48 *278:23 wbs_dat_o[17] 0.00195706
49 *278:23 *279:43 0.00025229
50 *278:23 *279:45 0.00728096
*RES
1 *537:module_status_flags_out[17] *279:9 13.535 
2 *279:9 *279:11 72.8343 
3 *279:11 *279:13 3.41 
4 *279:13 *279:15 1077.8 
5 *279:15 *279:35 25.5155 
6 *279:35 *279:37 1022.1 
7 *279:37 *279:39 4.5 
8 *279:39 *279:43 25.4018 
9 *279:43 *279:45 357.241 
10 *279:45 wbs_dat_o[17] 44.3314 
11 *279:39 la_data_out[17] 19.9821 
*END

*D_NET *280 0.264107
*CONN
*P wbs_dat_o[18] O
*P la_data_out[18] O
*I *537:module_status_flags_out[18] O *D phase_099_top_integration
*CAP
1 wbs_dat_o[18] 4.32496e-05
2 la_data_out[18] 0.000116678
3 *537:module_status_flags_out[18] 0.000461312
4 *280:33 0.0261925
5 *280:31 0.0261493
6 *280:21 0.00189983
7 *280:17 0.0504667
8 *280:15 0.0486835
9 *280:13 0.0105821
10 *280:11 0.0110434
11 *280:13 *284:13 0.00212319
12 *280:13 *287:13 0.0246226
13 *280:13 *289:21 0.00187708
14 *280:13 *290:19 0.0174745
15 *280:13 *300:15 0.00209687
16 *280:17 *299:87 0
17 *280:33 wbs_dat_o[20] 0
18 *280:33 *281:51 0.0240033
19 *76:9 *280:13 0
20 *144:15 *280:33 0
21 *181:7 *280:21 0
22 *183:9 *280:33 0
23 *271:11 *280:33 0.0162714
24 *273:29 *280:33 0
*RES
1 *537:module_status_flags_out[18] *280:11 12.4279 
2 *280:11 *280:13 58.9255 
3 *280:13 *280:15 3.41 
4 *280:15 *280:17 996.911 
5 *280:17 *280:21 30.9643 
6 *280:21 la_data_out[18] 1.61607 
7 *280:21 *280:31 3.41 
8 *280:31 *280:33 87.9683 
9 *280:33 wbs_dat_o[18] 4.29393 
*END

*D_NET *281 0.514208
*CONN
*P la_data_out[19] O
*P wbs_dat_o[19] O
*I *537:module_status_flags_out[19] O *D phase_099_top_integration
*CAP
1 la_data_out[19] 7.91948e-05
2 wbs_dat_o[19] 8.76134e-05
3 *537:module_status_flags_out[19] 0.000579012
4 *281:51 0.0262678
5 *281:49 0.0263138
6 *281:41 0.00186835
7 *281:37 0.0505149
8 *281:35 0.0514034
9 *281:15 0.0259756
10 *281:13 0.0234315
11 *281:11 0.0249469
12 *281:9 0.0255259
13 *281:9 *344:9 0
14 *281:11 *291:11 0
15 *281:11 *317:17 0.000695732
16 *281:11 *322:19 0.0268356
17 *281:11 *330:13 0.000756525
18 *281:11 *333:11 0.0242514
19 *281:15 *286:15 0.0279573
20 *281:15 *286:19 0
21 *281:15 *296:17 0.0856486
22 *281:35 *286:37 0.00108013
23 *281:35 *299:39 1.97442e-05
24 *281:37 *299:101 0.000383943
25 *281:37 *308:47 0
26 *537:rf_adc_i_in[3] *281:11 0.00170572
27 *537:rf_adc_i_in[9] *281:11 0.000288852
28 *537:rf_adc_q_in[0] *281:35 8.10798e-05
29 *537:rf_adc_q_in[13] *281:35 5.65101e-05
30 *38:9 *281:35 2.1479e-05
31 *51:9 *281:15 0
32 *52:21 *281:11 0.0227615
33 *76:9 *281:35 1.46412e-05
34 *77:19 *281:35 0.00929406
35 *78:23 *281:35 0
36 *80:25 *281:35 0.000414513
37 *131:13 *281:35 0
38 *136:11 *281:11 0.00180655
39 *180:15 *281:41 1.49949e-05
40 *260:23 *281:41 4.92889e-05
41 *271:11 *281:51 0.000595555
42 *272:11 *281:11 0.0205958
43 *277:11 *281:11 0.00126512
44 *277:27 *281:35 0.00019056
45 *279:35 *281:35 0.00642593
46 *280:33 *281:51 0.0240033
*RES
1 *537:module_status_flags_out[19] *281:9 13.3661 
2 *281:9 *281:11 841.268 
3 *281:11 *281:13 4.5 
4 *281:13 *281:15 1073.71 
5 *281:15 *281:35 32.1392 
6 *281:35 *281:37 1002.98 
7 *281:37 *281:41 29.1429 
8 *281:41 *281:49 7.5625 
9 *281:49 *281:51 501.196 
10 *281:51 wbs_dat_o[19] 5.66071 
11 *281:41 la_data_out[19] 2.22321 
*END

*D_NET *282 0.401186
*CONN
*P wbs_dat_o[20] O
*P la_data_out[20] O
*I *537:module_status_flags_out[20] O *D phase_099_top_integration
*CAP
1 wbs_dat_o[20] 0.00216598
2 la_data_out[20] 0.000665242
3 *537:module_status_flags_out[20] 0.000589253
4 *282:39 0.00990396
5 *282:37 0.00783652
6 *282:31 0.00382894
7 *282:29 0.00373041
8 *282:21 0.00174184
9 *282:17 0.0477125
10 *282:15 0.0466359
11 *282:13 0.0577117
12 *282:11 0.0577117
13 *282:9 0.00831031
14 *282:7 0.00889957
15 *282:7 *364:7 9.29487e-05
16 *282:9 *309:15 0.0194611
17 *282:9 *312:27 0.000303517
18 *282:9 *318:31 0.00344146
19 *282:9 *319:9 0.00920337
20 *282:9 *325:22 0
21 *282:9 *334:15 0.0377058
22 *282:9 *338:30 0.00823326
23 *282:13 *283:13 0
24 *282:17 *308:55 0.00327564
25 *282:31 *285:31 0.00669097
26 *282:31 *287:29 0.00402383
27 *282:37 la_data_out[8] 0
28 la_data_out[15] *282:31 0.00040105
29 la_data_out[17] *282:31 0.000487985
30 *104:5 *282:37 0
31 *131:7 *282:7 9.29487e-05
32 *132:49 wbs_dat_o[20] 0.0016553
33 *136:27 *282:39 0.0020053
34 *144:17 *282:31 0.00192224
35 *144:17 *282:39 0.000926621
36 *249:15 la_data_out[20] 0
37 *249:15 *282:21 0
38 *260:25 *282:31 0.00161225
39 *273:29 wbs_dat_o[20] 0.00478092
40 *275:15 *282:13 0
41 *275:29 *282:39 0.00249117
42 *277:33 *282:31 0.0111004
43 *277:33 *282:39 0.00102854
44 *278:23 *282:39 0.00610343
45 *279:43 *282:31 0.0026323
46 *279:45 *282:31 0.000125367
47 *279:45 *282:39 0.0139444
48 *280:33 wbs_dat_o[20] 0
*RES
1 *537:module_status_flags_out[20] *282:7 4.69467 
2 *282:7 *282:9 499.804 
3 *282:9 *282:11 3.41 
4 *282:11 *282:13 168.827 
5 *282:13 *282:15 3.41 
6 *282:15 *282:17 970.196 
7 *282:17 *282:21 18.8661 
8 *282:21 la_data_out[20] 11.1429 
9 *282:21 *282:29 4.5 
10 *282:29 *282:31 187.821 
11 *282:31 *282:37 10.3393 
12 *282:37 *282:39 271.196 
13 *282:39 wbs_dat_o[20] 28.8434 
*END

*D_NET *283 0.325046
*CONN
*P la_data_out[21] O
*P wbs_dat_o[21] O
*I *537:module_status_flags_out[21] O *D phase_099_top_integration
*CAP
1 la_data_out[21] 0.000944536
2 wbs_dat_o[21] 0.000900649
3 *537:module_status_flags_out[21] 0.00213236
4 *283:23 0.0118009
5 *283:21 0.0119083
6 *283:17 0.0447277
7 *283:15 0.0446642
8 *283:13 0.0434246
9 *283:11 0.045557
10 *283:17 *296:67 0
11 *283:17 *299:121 0.0143244
12 *283:21 *284:31 0.000347539
13 *283:21 *288:31 0.000170553
14 *283:23 *284:31 0.0534404
15 *283:23 *286:51 0.0479148
16 *283:23 *288:31 0.00106601
17 *283:23 *364:31 0.00172202
18 *81:5 *283:17 0
19 *83:9 *283:23 0
20 *277:39 wbs_dat_o[21] 0
21 *282:13 *283:13 0
*RES
1 *537:module_status_flags_out[21] *283:11 45.2136 
2 *283:11 *283:13 122.777 
3 *283:13 *283:15 3.41 
4 *283:15 *283:17 978.232 
5 *283:17 *283:21 3.96147 
6 *283:21 *283:23 88.0404 
7 *283:23 wbs_dat_o[21] 18.6511 
8 *283:21 la_data_out[21] 18.6511 
*END

*D_NET *284 0.338339
*CONN
*P wbs_dat_o[22] O
*P la_data_out[22] O
*I *537:module_status_flags_out[22] O *D phase_099_top_integration
*CAP
1 wbs_dat_o[22] 0.000936435
2 la_data_out[22] 0.000983469
3 *537:module_status_flags_out[22] 0.000600349
4 *284:31 0.0167758
5 *284:29 0.0158393
6 *284:21 0.00384532
7 *284:19 0.00290816
8 *284:17 0.0465368
9 *284:15 0.0464905
10 *284:13 0.0175011
11 *284:11 0.0181015
12 *284:13 *285:21 0.0043213
13 *284:13 *287:13 0.000755727
14 *284:13 *288:13 0.0541438
15 *284:13 *289:21 0.00872432
16 *284:13 *291:29 0.000779339
17 *284:13 *297:23 0.00393177
18 *284:13 *304:19 0.00225228
19 *284:13 *305:13 0.00179998
20 *284:13 *311:23 0.00172755
21 *284:13 *313:15 0.0080773
22 *284:13 *314:19 0.00359984
23 *284:13 *321:26 0.0036051
24 *284:31 *288:31 0.000463941
25 *83:9 *284:31 0
26 *205:9 *284:31 0.017727
27 *238:23 la_data_out[22] 0
28 *273:11 *284:11 0
29 *280:13 *284:13 0.00212319
30 *283:21 *284:31 0.000347539
31 *283:23 *284:31 0.0534404
*RES
1 *537:module_status_flags_out[22] *284:11 14.2493 
2 *284:11 *284:13 113.048 
3 *284:13 *284:15 3.41 
4 *284:15 *284:17 951.964 
5 *284:17 *284:19 0.946429 
6 *284:19 *284:21 56.75 
7 *284:21 la_data_out[22] 15.8482 
8 *284:21 *284:29 3.41 
9 *284:29 *284:31 88.0404 
10 *284:31 wbs_dat_o[22] 19.2582 
*END

*D_NET *285 0.339514
*CONN
*P la_data_out[23] O
*P wbs_dat_o[23] O
*I *537:module_status_flags_out[23] O *D phase_099_top_integration
*CAP
1 la_data_out[23] 0.000744691
2 wbs_dat_o[23] 0.00072411
3 *537:module_status_flags_out[23] 0.000439088
4 *285:31 0.010598
5 *285:29 0.0106511
6 *285:25 0.0494457
7 *285:23 0.0494132
8 *285:21 0.0176705
9 *285:19 0.0179723
10 *285:13 0.00996552
11 *285:11 0.0101028
12 *285:11 *339:7 0
13 *285:11 *339:9 0
14 *285:11 *342:7 0
15 *285:11 *342:9 0
16 *285:13 *297:13 0.0307515
17 *285:13 *304:19 0
18 *285:13 *310:15 0.000329806
19 *285:13 *311:13 0.00572957
20 *285:13 *314:19 0
21 *285:19 la_data_out[49] 0.000112351
22 *285:21 *289:21 0.00052556
23 *285:21 *291:29 0.00284618
24 *285:21 *297:23 0.0144925
25 *285:21 *455:17 0.0105641
26 *285:21 *455:27 0.00174985
27 *285:29 *292:41 0.000227179
28 *285:31 *287:29 0.0104913
29 *285:31 *291:35 0.000901423
30 *285:31 *292:41 0.0412045
31 *285:31 *333:37 0.0245541
32 *285:31 *344:27 0.000113045
33 *285:31 *344:29 0.000605719
34 *285:31 *355:31 0
35 *285:31 *355:39 0.000695989
36 *285:31 *364:23 0
37 *83:7 *285:25 0
38 *238:25 *285:29 0.000216439
39 *238:25 *285:31 0.00139759
40 *260:25 *285:31 0.00284958
41 *273:13 *285:21 0
42 *277:33 *285:31 0.000417066
43 *282:31 *285:31 0.00669097
44 *284:13 *285:21 0.0043213
*RES
1 *537:module_status_flags_out[23] *285:11 12.7589 
2 *285:11 *285:13 291.321 
3 *285:13 *285:19 13.6511 
4 *285:19 *285:21 71.7533 
5 *285:21 *285:23 3.41 
6 *285:23 *285:25 1009.35 
7 *285:25 *285:29 6.67857 
8 *285:29 *285:31 501.607 
9 *285:31 wbs_dat_o[23] 16.5536 
10 *285:29 la_data_out[23] 16.5536 
*END

*D_NET *286 0.480085
*CONN
*P la_data_out[24] O
*P wbs_dat_o[24] O
*I *537:module_status_flags_out[24] O *D phase_099_top_integration
*CAP
1 la_data_out[24] 0.00105047
2 wbs_dat_o[24] 0.000874646
3 *537:module_status_flags_out[24] 0.000749953
4 *286:51 0.00981288
5 *286:49 0.00897862
6 *286:43 0.00205528
7 *286:41 0.00306537
8 *286:39 0.0499405
9 *286:37 0.0554685
10 *286:19 0.00768508
11 *286:17 0.0021833
12 *286:15 0.0251275
13 *286:13 0.0251013
14 *286:11 0.00879988
15 *286:9 0.00954984
16 la_data_out[24] *289:27 0.000476448
17 *286:9 *329:9 0
18 *286:11 *290:11 0.0403919
19 *286:15 *333:25 0.000831369
20 *286:43 *288:31 0.00121558
21 *286:43 *289:27 0.0065107
22 *286:51 *288:31 0.0444048
23 *286:51 *364:31 0.00186063
24 wbs_dat_o[17] wbs_dat_o[24] 0
25 *537:rf_adc_q_in[0] *286:37 2.72228e-05
26 *537:rf_adc_q_in[12] *286:37 0
27 *537:rf_adc_q_in[13] *286:37 0.000938769
28 *537:rf_adc_q_in[14] *286:37 0.000137556
29 *37:13 *286:15 0.0123358
30 *37:13 *286:19 0.00111495
31 *38:9 *286:37 0.0156012
32 *51:9 *286:15 0.00770252
33 *51:9 *286:19 5.23931e-05
34 *53:9 *286:15 0.0253947
35 *53:9 *286:19 0.00550935
36 *78:23 *286:37 0.000708442
37 *78:25 *286:15 0
38 *80:25 *286:37 0
39 *126:15 *286:15 0.00107273
40 *131:13 *286:37 0
41 *132:13 *286:11 0.0213516
42 *277:15 *286:15 0
43 *277:27 *286:37 0.00229119
44 *279:15 *286:15 0
45 *279:35 *286:37 0.00276045
46 *281:15 *286:15 0.0279573
47 *281:15 *286:19 0
48 *281:35 *286:37 0.00108013
49 *283:23 *286:51 0.0479148
*RES
1 *537:module_status_flags_out[24] *286:9 15.3564 
2 *286:9 *286:11 64.2584 
3 *286:11 *286:13 3.41 
4 *286:13 *286:15 1008 
5 *286:15 *286:17 0.535714 
6 *286:17 *286:19 68.7143 
7 *286:19 *286:37 48.2893 
8 *286:37 *286:39 1019.97 
9 *286:39 *286:41 4.5 
10 *286:41 *286:43 61.7321 
11 *286:43 *286:49 8.49036 
12 *286:49 *286:51 76.4377 
13 *286:51 wbs_dat_o[24] 18.0439 
14 *286:41 la_data_out[24] 23.3214 
*END

*D_NET *287 0.346687
*CONN
*P wbs_dat_o[25] O
*P la_data_out[25] O
*I *537:module_status_flags_out[25] O *D phase_099_top_integration
*CAP
1 wbs_dat_o[25] 0.000685512
2 la_data_out[25] 0.000863095
3 *537:module_status_flags_out[25] 0.000524237
4 *287:29 0.0151716
5 *287:27 0.0144861
6 *287:17 0.0505317
7 *287:15 0.0496686
8 *287:13 0.00993186
9 *287:11 0.0104561
10 *287:11 *313:15 0
11 *287:13 *288:13 0.0514742
12 *287:13 *300:15 0.0035035
13 *287:13 *304:19 0.00205814
14 *287:13 *305:13 0.0215701
15 *287:17 *308:77 0
16 *287:29 wbs_dat_o[27] 0.00738627
17 *287:29 *290:33 0.0214951
18 *287:29 *322:35 0.00229152
19 *287:29 *333:37 0.00412583
20 *287:29 *344:29 0.00331256
21 *287:29 *355:39 0.00186739
22 *287:29 *364:31 0.000566525
23 *85:5 *287:17 0
24 *155:9 *287:29 0.00584611
25 *216:23 la_data_out[25] 0
26 *238:25 *287:29 0.000235585
27 *249:17 *287:29 0.00916364
28 *260:25 *287:29 0.000885773
29 *271:15 la_data_out[25] 0
30 *278:21 *287:29 0.000149961
31 *278:23 *287:29 0.0185426
32 *280:13 *287:13 0.0246226
33 *282:31 *287:29 0.00402383
34 *284:13 *287:13 0.000755727
35 *285:31 *287:29 0.0104913
*RES
1 *537:module_status_flags_out[25] *287:11 13.035 
2 *287:11 *287:13 84.1488 
3 *287:13 *287:15 3.41 
4 *287:15 *287:17 1014.05 
5 *287:17 la_data_out[25] 12.9554 
6 *287:17 *287:27 3.41 
7 *287:27 *287:29 88.2566 
8 *287:29 wbs_dat_o[25] 15.0082 
*END

*D_NET *288 0.363696
*CONN
*P wbs_dat_o[26] O
*P la_data_out[26] O
*I *537:module_status_flags_out[26] O *D phase_099_top_integration
*CAP
1 wbs_dat_o[26] 0.000839274
2 la_data_out[26] 0.000882598
3 *537:module_status_flags_out[26] 0.000557141
4 *288:31 0.012653
5 *288:29 0.0118137
6 *288:21 0.00379877
7 *288:19 0.00304286
8 *288:17 0.0456557
9 *288:15 0.045529
10 *288:13 0.00876511
11 *288:11 0.00932225
12 *288:13 *305:13 0.0008252
13 *288:17 *299:151 0.0045575
14 *288:17 *455:27 0
15 *288:31 *290:33 0.00264629
16 *288:31 *293:29 0.0464366
17 *288:31 *355:31 0.00459303
18 *288:31 *364:23 0.00408978
19 *288:31 *364:31 0.00372612
20 *205:9 *288:31 0.00102318
21 *283:21 *288:31 0.000170553
22 *283:23 *288:31 0.00106601
23 *284:13 *288:13 0.0541438
24 *284:31 *288:31 0.000463941
25 *286:43 *288:31 0.00121558
26 *286:51 *288:31 0.0444048
27 *287:13 *288:13 0.0514742
*RES
1 *537:module_status_flags_out[26] *288:11 13.6421 
2 *288:11 *288:13 84.5091 
3 *288:13 *288:15 3.41 
4 *288:15 *288:17 952.571 
5 *288:17 *288:19 2.58929 
6 *288:19 *288:21 58.5714 
7 *288:21 la_data_out[26] 14.0268 
8 *288:21 *288:29 3.41 
9 *288:29 *288:31 88.0404 
10 *288:31 wbs_dat_o[26] 17.4368 
*END

*D_NET *289 0.563999
*CONN
*P la_data_out[27] O
*P wbs_dat_o[27] O
*I *537:module_status_flags_out[27] O *D phase_099_top_integration
*CAP
1 la_data_out[27] 0.000978696
2 wbs_dat_o[27] 0.00222662
3 *537:module_status_flags_out[27] 0.000615351
4 *289:27 0.0152487
5 *289:25 0.0140007
6 *289:23 0.0509879
7 *289:21 0.0558443
8 *289:15 0.0247398
9 *289:13 0.0198834
10 *289:11 0.00859658
11 *289:9 0.00921193
12 la_data_out[27] *291:35 6.76263e-05
13 wbs_dat_o[27] wbs_dat_o[31] 0
14 wbs_dat_o[27] *322:35 0.00153265
15 wbs_dat_o[27] *344:29 0.00141355
16 *289:11 *290:11 0.0425628
17 *289:11 *291:11 0.00153774
18 *289:11 *363:19 0.000518255
19 *289:15 *308:23 0.0725016
20 *289:15 *308:31 0.000320114
21 *289:21 *290:19 0.0011516
22 *289:21 *455:27 0.0217341
23 *289:27 *291:35 0.012013
24 *289:27 *293:29 0.00930102
25 *289:27 *364:21 0.000216439
26 *289:27 *364:23 0.0157349
27 la_data_out[24] *289:27 0.000476448
28 *537:rf_adc_i_in[4] *289:11 0.00238323
29 *537:rf_adc_i_in[5] *289:9 0
30 *537:rf_adc_q_in[15] *289:21 0.000317683
31 *537:rf_adc_q_in[4] *289:21 0.000353801
32 *77:21 *289:15 0
33 *80:27 *289:15 0.092348
34 *126:11 *289:11 0.00427757
35 *132:13 *289:11 0.00234085
36 *144:21 *289:23 0
37 *144:37 la_data_out[27] 0
38 *278:23 wbs_dat_o[27] 0.00753411
39 *279:11 *289:11 0.0460041
40 *280:13 *289:21 0.00187708
41 *284:13 *289:21 0.00872432
42 *285:21 *289:21 0.00052556
43 *286:43 *289:27 0.0065107
44 *287:29 wbs_dat_o[27] 0.00738627
*RES
1 *537:module_status_flags_out[27] *289:9 12.91 
2 *289:9 *289:11 83.6083 
3 *289:11 *289:13 3.41 
4 *289:13 *289:15 191.381 
5 *289:15 *289:21 43.9453 
6 *289:21 *289:23 1009.96 
7 *289:23 *289:25 4.5 
8 *289:25 *289:27 431.786 
9 *289:27 wbs_dat_o[27] 37.1139 
10 *289:25 la_data_out[27] 20.9643 
*END

*D_NET *290 0.545644
*CONN
*P wbs_dat_o[28] O
*P la_data_out[28] O
*I *537:module_status_flags_out[28] O *D phase_099_top_integration
*CAP
1 wbs_dat_o[28] 0.000780927
2 la_data_out[28] 0.000811715
3 *537:module_status_flags_out[28] 0.000647519
4 *290:33 0.0135785
5 *290:31 0.0127976
6 *290:23 0.0499458
7 *290:21 0.0491341
8 *290:19 0.0102766
9 *290:15 0.0435623
10 *290:13 0.0332858
11 *290:11 0.00755788
12 *290:9 0.0082054
13 *290:9 *323:11 0
14 *290:11 *291:11 0.000308736
15 *290:15 *291:15 0.0886609
16 *290:19 *291:19 0.0107613
17 *290:19 *308:43 0
18 *290:23 *296:129 0
19 *290:23 *299:179 0
20 *290:23 *299:193 0.00247925
21 *290:33 *291:35 0.00721044
22 *290:33 *292:41 0.00749059
23 *290:33 *293:29 0.049899
24 *290:33 *364:31 0.000249117
25 *537:rf_adc_q_in[10] *290:19 0.000962687
26 *537:rf_adc_q_in[15] *290:19 0.000179821
27 *537:rf_adc_q_in[3] *290:19 0.00225718
28 *537:rf_adc_q_in[4] *290:19 0.00257745
29 *537:rf_adc_q_in[7] *290:19 4.82783e-05
30 *44:9 *290:19 0.00051375
31 *71:5 *290:15 3.71252e-05
32 *76:9 *290:19 0
33 *126:11 *290:11 5.44202e-05
34 *132:13 *290:11 0.00101724
35 *249:17 *290:33 0.0142449
36 *272:11 *290:11 0
37 *279:11 *290:11 0.000385423
38 *280:13 *290:19 0.0174745
39 *286:11 *290:11 0.0403919
40 *287:29 *290:33 0.0214951
41 *288:31 *290:33 0.00264629
42 *289:11 *290:11 0.0425628
43 *289:21 *290:19 0.0011516
*RES
1 *537:module_status_flags_out[28] *290:9 13.9279 
2 *290:9 *290:11 69.3031 
3 *290:11 *290:13 3.41 
4 *290:13 *290:15 1088.12 
5 *290:15 *290:19 46.7691 
6 *290:19 *290:21 3.41 
7 *290:21 *290:23 1014.05 
8 *290:23 la_data_out[28] 12.8125 
9 *290:23 *290:31 3.41 
10 *290:31 *290:33 88.0404 
11 *290:33 wbs_dat_o[28] 16.2225 
*END

*D_NET *291 0.492847
*CONN
*P la_data_out[29] O
*P wbs_dat_o[29] O
*I *537:module_status_flags_out[29] O *D phase_099_top_integration
*CAP
1 la_data_out[29] 0.0009221
2 wbs_dat_o[29] 0.000775747
3 *537:module_status_flags_out[29] 0.000726715
4 *291:35 0.0117148
5 *291:33 0.0118611
6 *291:31 0.0509037
7 *291:29 0.05183
8 *291:19 0.0129152
9 *291:17 0.0119888
10 *291:15 0.0161579
11 *291:13 0.0161579
12 *291:11 0.0190606
13 *291:9 0.0197873
14 la_data_out[29] *292:41 0.000345629
15 *291:9 *351:17 0
16 *291:11 *329:11 0.00214117
17 *291:11 *333:11 6.13757e-06
18 *291:11 *363:19 0.00822606
19 *291:19 *296:29 0
20 *291:31 *296:135 0
21 *291:31 *296:141 0
22 *291:31 *299:201 0
23 *291:35 *292:41 0.0508659
24 *291:35 *364:23 0.000368223
25 la_data_out[27] *291:35 6.76263e-05
26 *537:rf_adc_i_in[3] *291:9 0
27 *71:5 *291:15 0.0497407
28 *126:11 *291:11 0.00795994
29 *249:17 *291:35 0.0029772
30 *277:11 *291:11 0.0191408
31 *279:11 *291:11 0.0011872
32 *281:11 *291:11 0
33 *284:13 *291:29 0.000779339
34 *285:21 *291:29 0.00284618
35 *285:31 *291:35 0.000901423
36 *289:11 *291:11 0.00153774
37 *289:27 *291:35 0.012013
38 *290:11 *291:11 0.000308736
39 *290:15 *291:15 0.0886609
40 *290:19 *291:19 0.0107613
41 *290:33 *291:35 0.00721044
*RES
1 *537:module_status_flags_out[29] *291:9 15.4911 
2 *291:9 *291:11 546.375 
3 *291:11 *291:13 4.5 
4 *291:13 *291:15 1086.91 
5 *291:15 *291:17 4.5 
6 *291:17 *291:19 234.643 
7 *291:19 *291:29 21.2006 
8 *291:29 *291:31 1009.35 
9 *291:31 *291:33 4.5 
10 *291:33 *291:35 497.911 
11 *291:35 wbs_dat_o[29] 17.1607 
12 *291:33 la_data_out[29] 20.5714 
*END

*D_NET *292 0.778879
*CONN
*P wbs_dat_o[30] O
*P la_data_out[30] O
*I *537:module_status_flags_out[30] O *D phase_099_top_integration
*CAP
1 wbs_dat_o[30] 0.000758332
2 la_data_out[30] 0.000783367
3 *537:module_status_flags_out[30] 0.000518382
4 *292:41 0.00797388
5 *292:39 0.00721555
6 *292:31 0.000823753
7 *292:27 0.012349
8 *292:25 0.0125658
9 *292:19 0.00598
10 *292:17 0.00572284
11 *292:15 0.0265594
12 *292:13 0.0265594
13 *292:11 0.00178854
14 *292:9 0.00230692
15 *292:9 *320:13 0.000222969
16 *292:11 *332:13 0.00312877
17 *292:15 *295:29 2.30116e-06
18 *292:15 *295:31 0.0164537
19 *292:15 *298:15 8.20212e-05
20 *292:15 *320:15 0
21 *292:15 *326:15 0.000128434
22 *292:15 *332:15 0.170986
23 *292:15 *345:15 0.170343
24 *292:19 *330:19 0
25 *292:19 *332:21 0.00165156
26 *292:19 *338:42 0
27 *292:19 *340:22 0
28 *292:19 *350:21 0.0191371
29 *292:25 la_data_out[69] 0
30 *292:27 *293:29 0.00161094
31 *292:27 *294:13 0.0521705
32 *292:27 *294:23 0.0121272
33 *292:27 *299:209 0.000973614
34 la_data_out[29] *292:41 0.000345629
35 *61:21 *292:11 0.0152601
36 *63:21 *292:11 0.0152601
37 *76:15 *292:15 0.00363526
38 *76:19 *292:15 0.00253679
39 *216:25 *292:41 0.00854108
40 *238:25 *292:41 0.00160131
41 *249:17 *292:27 0.0677673
42 *249:17 *292:41 0.00321943
43 *285:29 *292:41 0.000227179
44 *285:31 *292:41 0.0412045
45 *290:33 *292:41 0.00749059
46 *291:35 *292:41 0.0508659
*RES
1 *537:module_status_flags_out[30] *292:9 14.1518 
2 *292:9 *292:11 143.464 
3 *292:11 *292:13 4.5 
4 *292:13 *292:15 2097.5 
5 *292:15 *292:17 4.5 
6 *292:17 *292:19 180.018 
7 *292:19 *292:25 12.1332 
8 *292:25 *292:27 108.003 
9 *292:27 *292:31 3.99036 
10 *292:31 la_data_out[30] 12.3571 
11 *292:31 *292:39 4.5 
12 *292:39 *292:41 501.607 
13 *292:41 wbs_dat_o[30] 16.8571 
*END

*D_NET *293 0.402345
*CONN
*P wbs_dat_o[31] O
*P la_data_out[31] O
*I *537:module_status_flags_out[31] O *D phase_099_top_integration
*CAP
1 wbs_dat_o[31] 0.000831384
2 la_data_out[31] 0.000998785
3 *537:module_status_flags_out[31] 0.000124866
4 *293:29 0.013033
5 *293:27 0.0122016
6 *293:17 0.00418715
7 *293:15 0.00318836
8 *293:13 0.0458542
9 *293:11 0.0458542
10 *293:9 0.0295762
11 *293:7 0.0297011
12 *293:9 *298:23 0.0173836
13 *293:9 *302:9 0.0824212
14 *293:9 *326:15 0
15 *293:29 *299:209 0.00138475
16 wbs_dat_o[27] wbs_dat_o[31] 0
17 *205:9 *293:29 0
18 *249:17 *293:29 0.00180841
19 *275:11 *293:9 0.00654834
20 *288:31 *293:29 0.0464366
21 *289:27 *293:29 0.00930102
22 *290:33 *293:29 0.049899
23 *292:27 *293:29 0.00161094
*RES
1 *537:module_status_flags_out[31] *293:7 3.61367 
2 *293:7 *293:9 1011.02 
3 *293:9 *293:11 3.41 
4 *293:11 *293:13 137.478 
5 *293:13 *293:15 3.41 
6 *293:15 *293:17 62.0536 
7 *293:17 la_data_out[31] 15.1875 
8 *293:17 *293:27 3.41 
9 *293:27 *293:29 87.7521 
10 *293:29 wbs_dat_o[31] 16.8296 
*END

*D_NET *294 0.43529
*CONN
*P user_irq[0] O
*P la_data_out[32] O
*I *537:module_status_flags_out[32] O *D phase_099_top_integration
*CAP
1 user_irq[0] 0.000671155
2 la_data_out[32] 0.000849337
3 *537:module_status_flags_out[32] 8.83825e-05
4 *294:23 0.0354782
5 *294:13 0.0106959
6 *294:11 0.0446536
7 *294:9 0.0495685
8 *294:7 0.0496569
9 *294:9 la_data_out[62] 0
10 *294:9 *317:107 0.000767994
11 *294:13 la_data_out[36] 0.00192958
12 *294:13 *299:209 0.00876025
13 *294:23 *298:35 0.00175137
14 *294:23 *298:39 0.00491829
15 *294:23 *455:9 0.00618882
16 *193:9 *294:23 0.0126388
17 *227:17 *294:13 0.0374834
18 *227:17 *294:23 0.0716706
19 *249:17 *294:23 0.0332213
20 *276:11 *294:7 0
21 *276:11 *294:9 0
22 *292:27 *294:13 0.0521705
23 *292:27 *294:23 0.0121272
*RES
1 *537:module_status_flags_out[32] *294:7 1.60714 
2 *294:7 *294:9 1020.12 
3 *294:9 *294:11 3.41 
4 *294:11 *294:13 83.1399 
5 *294:13 la_data_out[32] 16.8296 
6 *294:11 *294:23 183.673 
7 *294:23 user_irq[0] 16.8296 
*END

*D_NET *295 0.778777
*CONN
*P user_irq[1] O
*P la_data_out[33] O
*I *537:module_status_flags_out[33] O *D phase_099_top_integration
*CAP
1 user_irq[1] 0.000613355
2 la_data_out[33] 0.000787459
3 *537:module_status_flags_out[33] 0.00302821
4 *295:53 0.0246804
5 *295:43 0.0191691
6 *295:41 0.0426839
7 *295:31 0.0667334
8 *295:29 0.0669577
9 *295:19 0.00136302
10 *295:17 0.00393171
11 *295:17 *316:9 0
12 *295:17 *316:11 0.00248974
13 *295:17 *320:13 0.00833206
14 *295:17 *329:11 0.00230891
15 *295:17 *332:13 0.00201271
16 *295:19 *315:11 0.00635112
17 *295:19 *320:13 0.00166657
18 *295:19 *329:11 0.00722025
19 *295:29 *326:11 5.43711e-05
20 *295:29 *330:13 2.89656e-05
21 *295:29 *330:15 9.58479e-05
22 *295:29 *332:15 3.37708e-05
23 *295:29 *341:13 7.84683e-05
24 *295:31 *298:23 0.118846
25 *295:31 *309:39 0
26 *295:31 *317:31 0.0117815
27 *295:31 *320:15 0.00817795
28 *295:31 *326:15 0.0277114
29 *295:31 *330:15 0.0236624
30 *295:31 *332:15 0.0118312
31 *295:31 *345:15 0.0184207
32 *295:41 *298:33 4.73953e-05
33 *295:41 *331:15 0
34 *295:41 *345:15 7.40636e-05
35 *295:43 *298:39 0.00416661
36 *295:43 *331:23 0.0205755
37 *295:53 *296:227 0.00148226
38 *295:53 *329:19 0
39 *295:53 *331:23 0.000359229
40 *295:53 *455:9 0.00263232
41 *31:9 *295:29 0
42 *31:9 *295:31 0.000918785
43 *31:13 *295:17 0.0118502
44 *61:9 *295:31 0.0213965
45 *61:21 *295:19 0.000475254
46 *64:13 *295:29 0
47 *76:15 *295:31 0.00645855
48 *76:19 *295:31 0.0109451
49 *76:21 *295:31 0.0236038
50 *191:19 *295:53 0.0165239
51 *193:9 *295:53 0.0108262
52 *205:17 *295:41 2.4775e-05
53 *216:25 *295:43 0.0790943
54 *216:25 *295:53 0.0363197
55 *238:25 *295:53 0.00131998
56 *249:17 *295:43 0.016504
57 *271:25 *295:53 0.00591738
58 *275:9 *295:31 0.000246133
59 *275:11 *295:31 0.00950653
60 *292:15 *295:29 2.30116e-06
61 *292:15 *295:31 0.0164537
*RES
1 *537:module_status_flags_out[33] *295:17 42.3996 
2 *295:17 *295:19 68.3036 
3 *295:19 *295:29 15.4515 
4 *295:29 *295:31 367.8 
5 *295:31 *295:41 15.0191 
6 *295:41 *295:43 748.857 
7 *295:43 la_data_out[33] 16.8571 
8 *295:41 *295:53 760.768 
9 *295:53 user_irq[1] 16.8571 
*END

*D_NET *296 0.726895
*CONN
*P user_irq[2] O
*P la_data_out[34] O
*I *537:module_status_flags_out[34] O *D phase_099_top_integration
*CAP
1 user_irq[2] 0.000549122
2 la_data_out[34] 0.000731442
3 *537:module_status_flags_out[34] 6.53915e-05
4 *296:227 0.0496242
5 *296:225 0.0490751
6 *296:213 0.00535966
7 *296:211 0.00496924
8 *296:205 0.00277392
9 *296:203 0.00278366
10 *296:197 0.00404031
11 *296:195 0.00443375
12 *296:187 0.00236042
13 *296:177 0.0101649
14 *296:175 0.00921304
15 *296:167 0.00279564
16 *296:163 0.00396802
17 *296:155 0.00262751
18 *296:149 0.00279994
19 *296:141 0.00521618
20 *296:139 0.00355709
21 *296:135 0.00233216
22 *296:129 0.00420745
23 *296:123 0.00416482
24 *296:115 0.002514
25 *296:109 0.00224789
26 *296:97 0.0070386
27 *296:95 0.00628353
28 *296:91 0.002847
29 *296:81 0.00479456
30 *296:79 0.00334161
31 *296:75 0.00248395
32 *296:67 0.00346819
33 *296:55 0.00292261
34 *296:51 0.00250736
35 *296:43 0.00238018
36 *296:29 0.00516883
37 *296:27 0.00471619
38 *296:17 0.0175073
39 *296:15 0.0171158
40 *296:9 0.0205925
41 *296:7 0.0201666
42 *296:9 *344:11 0.000331335
43 *296:9 *344:19 0.00680565
44 *296:9 *353:11 0.0190635
45 *296:17 *299:21 0.0858461
46 *296:27 *299:39 8.28937e-05
47 *296:43 *308:43 0.00164891
48 *296:51 *308:47 0.00250711
49 io_oeb[4] *296:91 0.00143236
50 *537:rf_adc_i_in[1] *296:7 1.68612e-05
51 *537:rf_adc_q_in[10] *296:17 0
52 *537:rf_adc_q_in[7] *296:29 0.000325149
53 *76:9 *296:29 0.000320402
54 *77:5 *296:43 0.000248493
55 *78:5 *296:51 0.000968744
56 *94:5 *296:197 0.00330355
57 *144:21 *296:109 0.00146871
58 *191:19 *296:227 0.0174246
59 *192:9 *296:227 0.0651558
60 *260:25 *296:227 0.120401
61 *274:11 *296:9 0.00650302
62 *281:15 *296:17 0.0856486
63 *283:17 *296:67 0
64 *290:23 *296:129 0
65 *291:19 *296:29 0
66 *291:31 *296:135 0
67 *291:31 *296:141 0
68 *295:53 *296:227 0.00148226
*RES
1 *537:module_status_flags_out[34] *296:7 5.625 
2 *296:7 *296:9 454.58 
3 *296:9 *296:15 11.9286 
4 *296:15 *296:17 1071.43 
5 *296:17 *296:27 29.1964 
6 *296:27 *296:29 74.875 
7 *296:29 *296:43 43.8214 
8 *296:43 *296:51 49.3571 
9 *296:51 *296:55 31.7321 
10 *296:55 *296:67 37.4643 
11 *296:67 *296:75 45.1964 
12 *296:75 *296:79 13.6607 
13 *296:79 *296:81 58.7143 
14 *296:81 *296:91 49.8393 
15 *296:91 *296:95 21.4643 
16 *296:95 *296:97 110.018 
17 *296:97 *296:109 47.2143 
18 *296:109 *296:115 19.3929 
19 *296:115 *296:123 48.0179 
20 *296:123 *296:129 47.4286 
21 *296:129 *296:135 49.5 
22 *296:135 *296:139 10.7857 
23 *296:139 *296:141 64.7857 
24 *296:141 *296:149 49.9821 
25 *296:149 *296:155 23.9107 
26 *296:155 *296:163 45.7679 
27 *296:163 *296:167 48.0357 
28 *296:167 *296:175 17.5 
29 *296:175 *296:177 175.589 
30 *296:177 *296:187 45.7679 
31 *296:187 *296:195 19.1429 
32 *296:195 *296:197 104.554 
33 *296:197 *296:203 15.2857 
34 *296:203 *296:205 49.3036 
35 *296:205 *296:211 15.2857 
36 *296:211 *296:213 92.4107 
37 *296:213 la_data_out[34] 11.8036 
38 *296:213 *296:225 4.5 
39 *296:225 *296:227 1498.82 
40 *296:227 user_irq[2] 15.6429 
*END

*D_NET *297 0.195619
*CONN
*P la_data_out[35] O
*I *537:module_status_flags_out[35] O *D phase_099_top_integration
*CAP
1 la_data_out[35] 0.0500796
2 *537:module_status_flags_out[35] 0.000409187
3 *297:23 0.0536433
4 *297:13 0.0182941
5 *297:11 0.0151395
6 *297:13 *300:15 0.000701155
7 *297:13 *303:15 0.00105713
8 *297:13 *304:19 0
9 *297:13 *310:15 0.000729874
10 *297:13 *311:13 0.00638992
11 *297:13 *314:19 0
12 *297:23 la_data_out[43] 0
13 *284:13 *297:23 0.00393177
14 *285:13 *297:13 0.0307515
15 *285:21 *297:23 0.0144925
*RES
1 *537:module_status_flags_out[35] *297:11 12.4554 
2 *297:11 *297:13 394.821 
3 *297:13 *297:23 39.4334 
4 *297:23 la_data_out[35] 1021.88 
*END

*D_NET *298 0.537226
*CONN
*P la_data_out[36] O
*I *537:module_status_flags_out[36] O *D phase_099_top_integration
*CAP
1 la_data_out[36] 0.00479711
2 *537:module_status_flags_out[36] 0.000625859
3 *298:39 0.024863
4 *298:37 0.0200897
5 *298:35 0.00171352
6 *298:33 0.00211402
7 *298:23 0.039259
8 *298:21 0.0389599
9 *298:15 0.00869504
10 *298:13 0.00856983
11 *298:11 0.00150656
12 *298:9 0.00213242
13 la_data_out[36] la_data_out[43] 0
14 la_data_out[36] *299:209 0.000936385
15 *298:9 *334:13 0
16 *298:11 *330:13 0.00149058
17 *298:11 *357:11 0.00445985
18 *298:15 *320:15 0.0555631
19 *298:15 *326:15 0.055334
20 *298:21 *302:7 4.07806e-05
21 *298:23 *302:9 0.0272675
22 *298:23 *317:31 0.00310542
23 *298:33 *330:15 0.000156762
24 *298:33 *332:21 5.73955e-05
25 *298:33 *356:13 0
26 *298:35 la_data_out[80] 0.000227179
27 *298:35 *329:19 0.00451268
28 *298:35 *331:23 0.00314321
29 *298:39 *329:19 0.0151747
30 *298:39 *331:23 0.00313561
31 *52:21 *298:11 0.00751115
32 *61:9 *298:23 0.0394198
33 *205:9 la_data_out[36] 0.00361884
34 *205:15 la_data_out[36] 0.000690679
35 *205:17 *298:33 7.76655e-05
36 *227:17 la_data_out[36] 0.00216087
37 *227:17 *298:39 0.0066908
38 *292:15 *298:15 8.20212e-05
39 *293:9 *298:23 0.0173836
40 *294:13 la_data_out[36] 0.00192958
41 *294:23 *298:35 0.00175137
42 *294:23 *298:39 0.00491829
43 *295:31 *298:23 0.118846
44 *295:41 *298:33 4.73953e-05
45 *295:43 *298:39 0.00416661
*RES
1 *537:module_status_flags_out[36] *298:9 14.0804 
2 *298:9 *298:11 70.7679 
3 *298:11 *298:13 4.5 
4 *298:13 *298:15 681.188 
5 *298:15 *298:21 7.04717 
6 *298:21 *298:23 248.27 
7 *298:23 *298:33 14.9885 
8 *298:33 *298:35 80.4196 
9 *298:35 *298:37 0.428571 
10 *298:37 *298:39 511.67 
11 *298:39 la_data_out[36] 46.9085 
*END

*D_NET *299 0.40463
*CONN
*P la_data_out[37] O
*I *537:module_status_flags_out[37] O *D phase_099_top_integration
*CAP
1 la_data_out[37] 0.000895224
2 *537:module_status_flags_out[37] 0.00184403
3 *299:209 0.00525283
4 *299:201 0.00673532
5 *299:193 0.00407171
6 *299:179 0.00488328
7 *299:177 0.00433514
8 *299:169 0.00289526
9 *299:151 0.0034759
10 *299:149 0.00224305
11 *299:143 0.00768086
12 *299:141 0.0085462
13 *299:131 0.00577247
14 *299:121 0.00975726
15 *299:119 0.00581656
16 *299:113 0.00407391
17 *299:111 0.00440923
18 *299:105 0.00467597
19 *299:103 0.00389076
20 *299:101 0.00238956
21 *299:87 0.00497711
22 *299:73 0.0102208
23 *299:71 0.00976865
24 *299:53 0.0045836
25 *299:39 0.00504482
26 *299:21 0.0376972
27 *299:19 0.0351005
28 *299:17 0.0172358
29 *299:15 0.0190798
30 *299:15 *338:16 0.00274682
31 *299:15 *353:11 0.000489997
32 *299:17 *325:16 0.00137406
33 *299:17 *338:16 0.000761886
34 *299:17 *344:19 0.016318
35 *299:21 *537:clk_2p4g 5.87659e-05
36 *299:71 *355:13 0
37 *299:71 *364:13 0
38 io_oeb[0] *299:177 0.00108928
39 io_oeb[37] *299:201 0.00272633
40 la_data_out[36] *299:209 0.000936385
41 *537:rf_adc_i_in[5] *299:15 2.63616e-05
42 *537:rf_adc_q_in[5] *299:39 0.00113014
43 *77:5 *299:87 0.000618853
44 *78:5 *299:101 0
45 *81:5 *299:121 0
46 *88:5 *299:201 0
47 *89:9 *299:193 5.80352e-05
48 *91:5 *299:209 0
49 *92:9 *299:169 0.000212923
50 *101:9 *299:177 0.000295751
51 *102:9 *299:169 0.000178591
52 *103:9 *299:169 0.000176967
53 *105:9 *299:169 6.94747e-05
54 *130:10 *299:17 0.0103651
55 *133:13 *299:111 0.002082
56 *144:21 *299:169 0.000773159
57 *205:9 *299:209 0.00149685
58 *274:11 *299:15 0.00138231
59 *275:15 *299:53 0.000258976
60 *276:13 *299:39 0.00111976
61 *277:27 *299:39 0.000926625
62 *277:29 *299:53 0.000791696
63 *279:37 *299:73 0
64 *280:17 *299:87 0
65 *281:35 *299:39 1.97442e-05
66 *281:37 *299:101 0.000383943
67 *283:17 *299:121 0.0143244
68 *288:17 *299:151 0.0045575
69 *290:23 *299:179 0
70 *290:23 *299:193 0.00247925
71 *291:31 *299:201 0
72 *292:27 *299:209 0.000973614
73 *293:29 *299:209 0.00138475
74 *294:13 *299:209 0.00876025
75 *296:17 *299:21 0.0858461
76 *296:27 *299:39 8.28937e-05
*RES
1 *537:module_status_flags_out[37] *299:15 13.0197 
2 *299:15 *299:17 80.1491 
3 *299:17 *299:19 3.41 
4 *299:19 *299:21 1069.91 
5 *299:21 *299:39 40.9307 
6 *299:39 *299:53 49.867 
7 *299:53 *299:71 33.9808 
8 *299:71 *299:73 156.768 
9 *299:73 *299:87 38.0854 
10 *299:87 *299:101 49.1646 
11 *299:101 *299:103 3.41 
12 *299:103 *299:105 77.2321 
13 *299:105 *299:111 10.11 
14 *299:111 *299:113 71.7679 
15 *299:113 *299:119 8.02007 
16 *299:119 *299:121 175.589 
17 *299:121 *299:131 41.9098 
18 *299:131 *299:141 20.175 
19 *299:141 *299:143 147.054 
20 *299:143 *299:149 8.02007 
21 *299:149 *299:151 55.9821 
22 *299:151 *299:169 35.9492 
23 *299:169 *299:177 26.2567 
24 *299:177 *299:179 62.6607 
25 *299:179 *299:193 46.3781 
26 *299:193 *299:201 37.4231 
27 *299:201 *299:209 40.054 
28 *299:209 la_data_out[37] 14.0268 
*END

*D_NET *300 0.128751
*CONN
*P la_data_out[38] O
*I *537:module_status_flags_out[38] O *D phase_099_top_integration
*CAP
1 la_data_out[38] 0.0519903
2 *537:module_status_flags_out[38] 0.00381165
3 *300:15 0.0558019
4 *300:15 *303:15 0.00700204
5 *300:15 *305:13 0.00351909
6 *300:15 *307:31 0.000324837
7 *76:9 *300:15 0
8 *280:13 *300:15 0.00209687
9 *287:13 *300:15 0.0035035
10 *297:13 *300:15 0.000701155
*RES
1 *537:module_status_flags_out[38] *300:15 34.7357 
2 *300:15 la_data_out[38] 1026.74 
*END

*D_NET *301 0.109176
*CONN
*P la_data_out[39] O
*I *537:module_status_flags_out[39] O *D phase_099_top_integration
*CAP
1 la_data_out[39] 0.00230769
2 *537:module_status_flags_out[39] 8.08056e-05
3 *301:9 0.052693
4 *301:7 0.0504661
5 la_data_out[39] *324:13 0.000103968
6 *301:7 *358:7 0
7 *301:9 *358:9 0
8 *194:9 la_data_out[39] 0
9 *227:9 la_data_out[39] 0.0035248
*RES
1 *537:module_status_flags_out[39] *301:7 1.60714 
2 *301:7 *301:9 1015.27 
3 *301:9 la_data_out[39] 30.6209 
*END

*D_NET *302 0.300665
*CONN
*P la_data_out[40] O
*I *537:module_status_flags_out[40] O *D phase_099_top_integration
*CAP
1 la_data_out[40] 0.00310518
2 *537:module_status_flags_out[40] 0.000129551
3 *302:15 0.00310518
4 *302:13 0.0368318
5 *302:11 0.0368318
6 *302:9 0.0429261
7 *302:7 0.0430556
8 *302:9 *317:31 0.0140914
9 *302:9 *326:15 0
10 *302:9 *331:15 0
11 *302:13 *308:165 0.00267314
12 *302:13 *312:121 0.000245891
13 *275:11 *302:9 0.00794008
14 *293:9 *302:9 0.0824212
15 *298:21 *302:7 4.07806e-05
16 *298:23 *302:9 0.0272675
*RES
1 *537:module_status_flags_out[40] *302:7 3.68573 
2 *302:7 *302:9 1375.91 
3 *302:9 *302:11 3.41 
4 *302:11 *302:13 112.327 
5 *302:13 *302:15 3.41 
6 *302:15 la_data_out[40] 56.5268 
*END

*D_NET *303 0.15502
*CONN
*P la_data_out[41] O
*I *537:module_status_flags_out[41] O *D phase_099_top_integration
*CAP
1 la_data_out[41] 0.0520281
2 *537:module_status_flags_out[41] 0.000403937
3 *303:15 0.0611056
4 *303:11 0.00948142
5 *303:15 *305:13 0.0027909
6 *303:15 *310:15 0.00332402
7 *303:15 *311:13 0.0135491
8 *76:9 *303:15 0.00427745
9 *297:13 *303:15 0.00105713
10 *300:15 *303:15 0.00700204
*RES
1 *537:module_status_flags_out[41] *303:11 11.2136 
2 *303:11 *303:15 49.8679 
3 *303:15 la_data_out[41] 1027.35 
*END

*D_NET *304 0.476792
*CONN
*P la_data_out[42] O
*I *537:module_status_flags_out[42] O *D phase_099_top_integration
*CAP
1 la_data_out[42] 0.0518284
2 *537:module_status_flags_out[42] 7.39183e-05
3 *304:21 0.0518284
4 *304:19 0.0234785
5 *304:17 0.0234785
6 *304:15 0.0135988
7 *304:13 0.0135988
8 *304:11 0.0077488
9 *304:9 0.00782272
10 la_data_out[42] *308:149 0
11 *304:11 *314:11 0.0254695
12 *304:11 *353:11 0
13 *304:15 la_data_out[81] 0.0880196
14 *304:15 *323:25 0.0880136
15 *304:15 *338:30 0.00693317
16 *304:19 *313:15 0.00131085
17 *304:19 *314:19 0.0487457
18 *304:19 *327:15 0.00101998
19 *304:19 *359:13 0.00466486
20 *304:19 *455:17 0
21 *67:17 *304:11 0.00561971
22 *131:9 *304:15 0.00922776
23 *284:13 *304:19 0.00225228
24 *285:13 *304:19 0
25 *287:13 *304:19 0.00205814
26 *297:13 *304:19 0
*RES
1 *537:module_status_flags_out[42] *304:9 5.45536 
2 *304:9 *304:11 241.214 
3 *304:11 *304:13 4.5 
4 *304:13 *304:15 1079.62 
5 *304:15 *304:17 4.5 
6 *304:17 *304:19 617.018 
7 *304:19 *304:21 4.5 
8 *304:21 la_data_out[42] 1024.16 
*END

*D_NET *305 0.194287
*CONN
*P la_data_out[43] O
*I *537:module_status_flags_out[43] O *D phase_099_top_integration
*CAP
1 la_data_out[43] 0.050338
2 *537:module_status_flags_out[43] 0.000482032
3 *305:15 0.050338
4 *305:13 0.0079204
5 *305:11 0.00840244
6 la_data_out[43] *308:157 0
7 *305:11 *359:11 0
8 *305:13 *310:15 0.00332402
9 *305:13 *311:13 0.0293782
10 *305:13 *321:26 0.0135983
11 la_data_out[36] la_data_out[43] 0
12 *284:13 *305:13 0.00179998
13 *287:13 *305:13 0.0215701
14 *288:13 *305:13 0.0008252
15 *297:23 la_data_out[43] 0
16 *300:15 *305:13 0.00351909
17 *303:15 *305:13 0.0027909
*RES
1 *537:module_status_flags_out[43] *305:11 12.4279 
2 *305:11 *305:13 66.1321 
3 *305:13 *305:15 3.41 
4 *305:15 la_data_out[43] 1026.13 
*END

*D_NET *306 0.101812
*CONN
*P la_data_out[44] O
*I *537:module_status_flags_out[44] O *D phase_099_top_integration
*CAP
1 la_data_out[44] 0.000108895
2 *537:module_status_flags_out[44] 8.02418e-05
3 *306:9 0.0508258
4 *306:7 0.0507971
*RES
1 *537:module_status_flags_out[44] *306:7 1.60714 
2 *306:7 *306:9 1033.48 
3 *306:9 la_data_out[44] 1.29464 
*END

*D_NET *307 0.46398
*CONN
*P la_data_out[45] O
*I *537:module_status_flags_out[45] O *D phase_099_top_integration
*CAP
1 la_data_out[45] 0.0478988
2 *537:module_status_flags_out[45] 0.000695497
3 *307:33 0.0479437
4 *307:31 0.00278229
5 *307:29 0.00965118
6 *307:19 0.0170875
7 *307:17 0.0101737
8 *307:15 0.0169862
9 *307:13 0.0169862
10 *307:11 0.00249741
11 *307:9 0.0031929
12 *307:11 *330:13 0.00393919
13 *307:15 *331:15 0.000509625
14 *307:15 *338:38 7.46044e-05
15 *307:15 *340:18 0.0854469
16 *307:15 *341:15 0.0863495
17 *307:19 *315:23 0
18 *307:19 *320:19 0.00881021
19 *307:19 *320:33 0.00120964
20 *307:19 *341:29 0.00226565
21 *307:29 *315:23 0
22 *307:29 *315:33 0.00290384
23 *307:29 *316:19 0
24 *30:21 *307:11 0.0205139
25 *38:9 *307:19 0.0436497
26 *38:9 *307:29 0.0115734
27 *41:21 *307:11 0.0205139
28 *300:15 *307:31 0.000324837
*RES
1 *537:module_status_flags_out[45] *307:9 14.9911 
2 *307:9 *307:11 193.161 
3 *307:11 *307:13 4.5 
4 *307:13 *307:15 1079.17 
5 *307:15 *307:17 3.41 
6 *307:17 *307:19 68.3302 
7 *307:19 *307:29 34.2592 
8 *307:29 *307:31 56.0536 
9 *307:31 *307:33 0.946429 
10 *307:33 la_data_out[45] 978.098 
*END

*D_NET *308 0.436642
*CONN
*P la_data_out[46] O
*I *537:module_status_flags_out[46] O *D phase_099_top_integration
*CAP
1 la_data_out[46] 0.00314899
2 *537:module_status_flags_out[46] 0.000295265
3 *308:165 0.00560956
4 *308:157 0.00496067
5 *308:149 0.00588526
6 *308:135 0.00633214
7 *308:133 0.00373678
8 *308:127 0.0140995
9 *308:125 0.0133097
10 *308:123 0.00349581
11 *308:111 0.00693135
12 *308:109 0.00610623
13 *308:105 0.00532007
14 *308:95 0.00824011
15 *308:93 0.00721934
16 *308:89 0.00782389
17 *308:79 0.00834913
18 *308:77 0.0041979
19 *308:69 0.00441577
20 *308:61 0.00655821
21 *308:55 0.006254
22 *308:47 0.00483655
23 *308:45 0.00276903
24 *308:43 0.00358223
25 *308:31 0.012288
26 *308:23 0.0343447
27 *308:21 0.0273934
28 *308:11 0.0104709
29 *308:9 0.00901173
30 *308:11 *317:19 0.00213513
31 *308:11 *322:27 0.0270656
32 *308:79 *464:13 0.00199947
33 *308:123 *324:9 0
34 io_oeb[2] *308:123 0
35 io_oeb[33] *308:77 0.000885041
36 io_oeb[4] *308:69 0.000224056
37 la_data_out[42] *308:149 0
38 la_data_out[43] *308:157 0
39 *537:rf_adc_i_in[0] *308:9 0
40 *537:rf_adc_q_in[7] *308:43 0.00152039
41 *537:rf_adc_q_in[8] *308:43 0.00326154
42 *537:rf_adc_q_in[9] *308:43 0.000157795
43 *38:9 *308:43 0.00130431
44 *72:9 *308:149 0.000549834
45 *76:9 *308:43 0.00169442
46 *77:5 *308:43 0.00181268
47 *77:19 *308:43 2.12591e-06
48 *77:21 *308:23 0
49 *78:5 *308:47 0
50 *80:27 *308:31 0.018467
51 *94:5 *308:95 0.00510529
52 *105:9 *308:133 0
53 *127:16 *308:21 0
54 *135:11 *308:11 0.0499665
55 *275:15 *308:43 0.000307649
56 *276:13 *308:43 0.000234883
57 *279:35 *308:43 3.55717e-05
58 *281:37 *308:47 0
59 *282:17 *308:55 0.00327564
60 *287:17 *308:77 0
61 *289:15 *308:23 0.0725016
62 *289:15 *308:31 0.000320114
63 *290:19 *308:43 0
64 *296:43 *308:43 0.00164891
65 *296:51 *308:47 0.00250711
66 *302:13 *308:165 0.00267314
*RES
1 *537:module_status_flags_out[46] *308:9 8.46357 
2 *308:9 *308:11 77.9871 
3 *308:11 *308:21 15.1556 
4 *308:21 *308:23 147.063 
5 *308:23 *308:31 47.2964 
6 *308:31 *308:43 48.5878 
7 *308:43 *308:45 3.41 
8 *308:45 *308:47 67.5179 
9 *308:47 *308:55 49.2975 
10 *308:55 *308:61 18.6859 
11 *308:61 *308:69 48.721 
12 *308:69 *308:77 31.9895 
13 *308:77 *308:79 62.0536 
14 *308:79 *308:89 46.786 
15 *308:89 *308:93 7.781 
16 *308:93 *308:95 160.411 
17 *308:95 *308:105 42.1501 
18 *308:105 *308:109 11.5285 
19 *308:109 *308:111 70.5536 
20 *308:111 *308:123 47.4254 
21 *308:123 *308:125 3.41 
22 *308:125 *308:127 273.946 
23 *308:127 *308:133 9.029 
24 *308:133 *308:135 59.0179 
25 *308:135 *308:149 46.9566 
26 *308:149 *308:157 29.4997 
27 *308:157 *308:165 43.8855 
28 *308:165 la_data_out[46] 57.1339 
*END

*D_NET *309 0.460625
*CONN
*P la_data_out[47] O
*I *537:module_status_flags_out[47] O *D phase_099_top_integration
*CAP
1 la_data_out[47] 0.00107231
2 *537:module_status_flags_out[47] 0.000230368
3 *309:147 0.0151954
4 *309:145 0.0144798
5 *309:139 0.00379152
6 *309:137 0.00343478
7 *309:135 0.00547378
8 *309:133 0.00598565
9 *309:129 0.00182517
10 *309:119 0.0214516
11 *309:117 0.0204686
12 *309:111 0.0022704
13 *309:109 0.00259125
14 *309:103 0.00328606
15 *309:101 0.00394116
16 *309:95 0.00661316
17 *309:93 0.00596968
18 *309:87 0.00454734
19 *309:85 0.00421581
20 *309:79 0.00406265
21 *309:77 0.00583933
22 *309:65 0.00301963
23 *309:57 0.00269613
24 *309:49 0.00270743
25 *309:39 0.0108949
26 *309:33 0.011129
27 *309:15 0.0170891
28 *309:13 0.0159321
29 *309:11 0.00652703
30 *309:9 0.0067574
31 *309:11 *312:9 0.00980605
32 *309:11 *344:11 0.00943461
33 *309:11 *351:19 0.0488722
34 *309:11 *352:21 0.0317573
35 *309:15 *316:15 0.00923344
36 *309:15 *319:9 0.0508443
37 *309:15 *334:15 0.0260013
38 *309:33 *317:39 9.39896e-05
39 *309:33 *320:15 4.36671e-05
40 *309:33 *326:15 4.52619e-05
41 *309:39 *317:41 0.0202658
42 *309:39 *337:15 0
43 *309:95 *318:41 0.00253171
44 *309:111 la_data_out[73] 0.00175499
45 *309:129 la_data_out[72] 0.00205939
46 *309:139 *343:15 0.00300791
47 *309:145 *350:19 0
48 *309:147 *324:13 0
49 *309:147 *342:15 4.70997e-05
50 *309:147 *349:13 0
51 *309:147 *356:13 0.00387286
52 *32:9 *309:9 4.1737e-05
53 *76:15 *309:39 0
54 *76:19 *309:33 2.85934e-05
55 *76:19 *309:39 0
56 *205:17 *309:147 0.007923
57 *282:9 *309:15 0.0194611
58 *295:31 *309:39 0
*RES
1 *537:module_status_flags_out[47] *309:9 8.20536 
2 *309:9 *309:11 460.536 
3 *309:11 *309:13 4.5 
4 *309:13 *309:15 850.125 
5 *309:15 *309:33 25.1603 
6 *309:33 *309:39 48.895 
7 *309:39 *309:49 30.2939 
8 *309:49 *309:57 44.7321 
9 *309:57 *309:65 26.3036 
10 *309:65 *309:77 49.6964 
11 *309:77 *309:79 74.1964 
12 *309:79 *309:85 15.2857 
13 *309:85 *309:87 79.6607 
14 *309:87 *309:93 21.4464 
15 *309:93 *309:95 120.643 
16 *309:95 *309:101 33.7679 
17 *309:101 *309:103 52.3393 
18 *309:103 *309:109 21.4464 
19 *309:109 *309:111 55.6786 
20 *309:111 *309:117 15.2857 
21 *309:117 *309:119 400.232 
22 *309:119 *309:129 47.9821 
23 *309:129 *309:133 14.0714 
24 *309:133 *309:135 110.929 
25 *309:135 *309:137 4.5 
26 *309:137 *309:139 65.0179 
27 *309:139 *309:145 13.9546 
28 *309:145 *309:147 56.4031 
29 *309:147 la_data_out[47] 20.4725 
*END

*D_NET *310 0.113869
*CONN
*P la_data_out[48] O
*I *537:module_status_flags_out[48] O *D phase_099_top_integration
*CAP
1 la_data_out[48] 0.0520096
2 *537:module_status_flags_out[48] 0.00106893
3 *310:15 0.0530786
4 *310:15 *311:23 4.00658e-06
5 *285:13 *310:15 0.000329806
6 *297:13 *310:15 0.000729874
7 *303:15 *310:15 0.00332402
8 *305:13 *310:15 0.00332402
*RES
1 *537:module_status_flags_out[48] *310:15 20.5386 
2 *310:15 la_data_out[48] 1026.74 
*END

*D_NET *311 0.188986
*CONN
*P la_data_out[49] O
*I *537:module_status_flags_out[49] O *D phase_099_top_integration
*CAP
1 la_data_out[49] 0.0501369
2 *537:module_status_flags_out[49] 0.000443464
3 *311:23 0.0509456
4 *311:13 0.0129174
5 *311:11 0.0125522
6 *311:13 *321:26 0.00431454
7 *311:13 *360:15 0.000785123
8 *76:9 *311:13 0
9 *273:13 *311:23 0
10 *284:13 *311:23 0.00172755
11 *285:13 *311:13 0.00572957
12 *285:19 la_data_out[49] 0.000112351
13 *297:13 *311:13 0.00638992
14 *303:15 *311:13 0.0135491
15 *305:13 *311:13 0.0293782
16 *310:15 *311:23 4.00658e-06
*RES
1 *537:module_status_flags_out[49] *311:11 11.8207 
2 *311:11 *311:13 59.9344 
3 *311:13 *311:23 16.1042 
4 *311:23 la_data_out[49] 1023.71 
*END

*D_NET *312 0.538917
*CONN
*P la_data_out[50] O
*I *537:module_status_flags_out[50] O *D phase_099_top_integration
*CAP
1 la_data_out[50] 0.00320138
2 *537:module_status_flags_out[50] 8.38564e-05
3 *312:123 0.00320138
4 *312:121 0.00372179
5 *312:109 0.0127886
6 *312:107 0.0148398
7 *312:93 0.00848318
8 *312:91 0.00717024
9 *312:77 0.0193464
10 *312:75 0.0212797
11 *312:61 0.00877598
12 *312:59 0.00321498
13 *312:53 0.0052174
14 *312:51 0.00521765
15 *312:45 0.00485377
16 *312:43 0.0079001
17 *312:37 0.00624689
18 *312:35 0.00311514
19 *312:29 0.00430856
20 *312:27 0.0074784
21 *312:13 0.0174973
22 *312:11 0.0135801
23 *312:9 0.0141869
24 *312:7 0.0142707
25 *312:9 *318:11 0.0432553
26 *312:9 *323:23 0.000567019
27 *312:9 *338:16 0.00532779
28 *312:9 *340:6 0.00428913
29 *312:9 *345:11 0.03251
30 *312:9 *346:13 0.00111947
31 *312:9 *351:19 0.00890538
32 *312:9 *352:19 0.00324462
33 *312:9 *353:11 0.00682856
34 *312:9 *362:9 0.00370506
35 *312:13 la_data_out[81] 0.000238447
36 *312:13 *318:23 0.0864701
37 *312:13 *321:22 0.0869148
38 *312:13 *329:15 0
39 *312:13 *337:9 0.000355804
40 *312:27 *321:26 0
41 *312:27 *325:22 0
42 *312:27 *334:29 6.37188e-06
43 *312:27 *341:29 2.74485e-05
44 *312:29 *336:15 0
45 *312:61 *342:9 0.00214698
46 *312:93 la_data_out[58] 0
47 *312:107 la_data_out[53] 0
48 *312:121 la_data_out[51] 0
49 *38:9 *312:27 0.00379717
50 *64:13 *312:9 3.20942e-05
51 *66:13 *312:9 3.28263e-05
52 *76:9 *312:27 0.011953
53 *127:14 *312:9 0.00126027
54 *131:9 *312:13 0.00566845
55 *274:11 *312:9 0.00992569
56 *282:9 *312:27 0.000303517
57 *302:13 *312:121 0.000245891
58 *309:11 *312:9 0.00980605
*RES
1 *537:module_status_flags_out[50] *312:7 4.68679 
2 *312:7 *312:9 98.6702 
3 *312:9 *312:11 3.41 
4 *312:11 *312:13 1071.73 
5 *312:13 *312:27 38.9777 
6 *312:27 *312:29 71.1607 
7 *312:29 *312:35 9.029 
8 *312:35 *312:37 46.875 
9 *312:37 *312:43 17.677 
10 *312:43 *312:45 82.6964 
11 *312:45 *312:51 9.029 
12 *312:51 *312:53 89.9821 
13 *312:53 *312:59 9.029 
14 *312:59 *312:61 68.125 
15 *312:61 *312:75 44.0383 
16 *312:75 *312:77 296.411 
17 *312:77 *312:91 46.0523 
18 *312:91 *312:93 55.375 
19 *312:93 *312:107 44.1716 
20 *312:107 *312:109 179.232 
21 *312:109 *312:121 47.8272 
22 *312:121 *312:123 3.41 
23 *312:123 la_data_out[50] 59.5625 
*END

*D_NET *313 0.116314
*CONN
*P la_data_out[51] O
*I *537:module_status_flags_out[51] O *D phase_099_top_integration
*CAP
1 la_data_out[51] 0.0501787
2 *537:module_status_flags_out[51] 0.00328409
3 *313:15 0.0534628
4 *273:13 *313:15 0
5 *284:13 *313:15 0.0080773
6 *287:11 *313:15 0
7 *304:19 *313:15 0.00131085
8 *312:121 la_data_out[51] 0
*RES
1 *537:module_status_flags_out[51] *313:15 30.853 
2 *313:15 la_data_out[51] 1023.71 
*END

*D_NET *314 0.407113
*CONN
*P la_data_out[52] O
*I *537:module_status_flags_out[52] O *D phase_099_top_integration
*CAP
1 la_data_out[52] 0.0502395
2 *537:module_status_flags_out[52] 0.000128696
3 *314:21 0.0502395
4 *314:19 0.0154904
5 *314:17 0.0154904
6 *314:15 0.0330314
7 *314:13 0.0330314
8 *314:11 0.00369285
9 *314:9 0.00382155
10 la_data_out[52] *349:9 0
11 *314:11 *338:18 0.0251349
12 *314:11 *353:11 0
13 *314:15 *329:15 0.0879992
14 *314:19 *327:15 0.00111774
15 *314:19 *359:13 0.00454236
16 *314:19 *455:17 0
17 *63:17 *314:15 0
18 *67:17 *314:11 0.00521769
19 *140:15 *314:15 0.000120169
20 *284:13 *314:19 0.00359984
21 *285:13 *314:19 0
22 *297:13 *314:19 0
23 *304:11 *314:11 0.0254695
24 *304:19 *314:19 0.0487457
*RES
1 *537:module_status_flags_out[52] *314:9 6.27679 
2 *314:9 *314:11 249.018 
3 *314:11 *314:13 4.5 
4 *314:13 *314:15 1079.02 
5 *314:15 *314:17 4.5 
6 *314:17 *314:19 464.643 
7 *314:19 *314:21 4.5 
8 *314:21 la_data_out[52] 1024.46 
*END

*D_NET *315 0.37828
*CONN
*P la_data_out[53] O
*I *537:module_status_flags_out[53] O *D phase_099_top_integration
*CAP
1 la_data_out[53] 0.0507856
2 *537:module_status_flags_out[53] 0.000817028
3 *315:33 0.0515162
4 *315:23 0.00902675
5 *315:21 0.0106901
6 *315:15 0.0226917
7 *315:13 0.0202977
8 *315:11 0.000974873
9 *315:9 0.0017919
10 *315:11 *320:13 0.00126282
11 *315:11 *329:11 0.000460071
12 *315:15 *316:15 0.0862053
13 *315:15 *319:9 4.84855e-05
14 *315:15 *331:15 0
15 *315:15 *338:28 0.000137791
16 *315:15 *341:15 0.046008
17 *315:21 *316:19 0.00551313
18 *315:21 *334:29 0.00549453
19 *315:21 *338:36 6.90249e-05
20 *315:23 *316:19 0.0365029
21 *315:23 *320:19 0.00554626
22 *315:23 *320:33 0
23 *315:23 *334:29 0.0033636
24 *38:9 *315:33 0.00291565
25 *61:21 *315:11 0.00673706
26 *63:21 *315:11 0.000168399
27 *295:19 *315:11 0.00635112
28 *307:19 *315:23 0
29 *307:29 *315:23 0
30 *307:29 *315:33 0.00290384
31 *312:107 la_data_out[53] 0
*RES
1 *537:module_status_flags_out[53] *315:9 16.4018 
2 *315:9 *315:11 68.3036 
3 *315:11 *315:13 4.5 
4 *315:13 *315:15 1076.74 
5 *315:15 *315:21 19.1409 
6 *315:21 *315:23 56.8355 
7 *315:23 *315:33 15.6804 
8 *315:33 la_data_out[53] 1034.03 
*END

*D_NET *316 0.414043
*CONN
*P la_data_out[54] O
*I *537:module_status_flags_out[54] O *D phase_099_top_integration
*CAP
1 la_data_out[54] 0.0456386
2 *537:module_status_flags_out[54] 0.000776546
3 *316:29 0.0461286
4 *316:19 0.0167888
5 *316:17 0.0162988
6 *316:15 0.0177315
7 *316:13 0.0177315
8 *316:11 0.00574954
9 *316:9 0.00652609
10 *316:11 *329:11 0.0192055
11 *316:15 *319:9 0.068274
12 *316:15 *334:15 0
13 *316:19 *338:36 1.28217e-05
14 *31:13 *316:11 0.00164141
15 *38:9 *316:29 2.14879e-05
16 *76:9 *316:29 1.46491e-05
17 *131:13 *316:19 0
18 *133:9 la_data_out[54] 0.0115591
19 *295:17 *316:9 0
20 *295:17 *316:11 0.00248974
21 *307:29 *316:19 0
22 *309:15 *316:15 0.00923344
23 *315:15 *316:15 0.0862053
24 *315:21 *316:19 0.00551313
25 *315:23 *316:19 0.0365029
*RES
1 *537:module_status_flags_out[54] *316:9 16.4911 
2 *316:9 *316:11 181.661 
3 *316:11 *316:13 4.5 
4 *316:13 *316:15 1076.44 
5 *316:15 *316:17 3.41 
6 *316:17 *316:19 74.1676 
7 *316:19 *316:29 11.6384 
8 *316:29 la_data_out[54] 1032.21 
*END

*D_NET *317 0.492572
*CONN
*P la_data_out[55] O
*I *537:module_status_flags_out[55] O *D phase_099_top_integration
*CAP
1 la_data_out[55] 0.00293297
2 *537:module_status_flags_out[55] 0.00116877
3 *317:135 0.00361724
4 *317:129 0.00567795
5 *317:127 0.00631781
6 *317:123 0.00286135
7 *317:119 0.00368451
8 *317:115 0.00293058
9 *317:111 0.00240973
10 *317:107 0.00301724
11 *317:97 0.00782505
12 *317:95 0.00770097
13 *317:91 0.00239557
14 *317:87 0.00181116
15 *317:81 0.00294788
16 *317:79 0.00226557
17 *317:77 0.00440549
18 *317:75 0.00576642
19 *317:71 0.00266578
20 *317:67 0.00327589
21 *317:63 0.00362698
22 *317:59 0.00229578
23 *317:53 0.00517127
24 *317:51 0.00619495
25 *317:41 0.0433202
26 *317:39 0.0423455
27 *317:31 0.0236987
28 *317:29 0.0249728
29 *317:19 0.0127726
30 *317:17 0.0119784
31 *317:17 *363:17 0.00187174
32 *317:19 *318:11 0.000164645
33 *317:19 *322:27 0.000724248
34 *317:19 *326:11 0.0563697
35 *317:19 *351:17 0.0077063
36 *317:31 *320:15 0.0269476
37 *317:31 *331:15 0
38 *317:31 *363:25 9.36141e-05
39 *317:67 la_data_out[72] 0
40 *317:75 la_data_out[70] 0
41 *317:91 la_data_out[64] 0.00297435
42 *317:97 *318:71 0.00325987
43 *317:115 *318:79 0
44 *317:129 *356:9 0
45 *31:9 *317:31 0.00437797
46 *64:13 *317:19 0.0387986
47 *65:13 *317:29 0.000693815
48 *73:9 *317:127 0.00101773
49 *76:19 *317:41 0
50 *105:9 *317:119 0.00160195
51 *126:11 *317:17 0.00092557
52 *135:11 *317:19 0.00489965
53 *272:11 *317:17 0.00352407
54 *274:11 *317:19 0.0109697
55 *275:11 *317:31 0.0201327
56 *279:9 *317:17 0.000526252
57 *281:11 *317:17 0.000695732
58 *294:9 *317:107 0.000767994
59 *295:31 *317:31 0.0117815
60 *298:23 *317:31 0.00310542
61 *302:9 *317:31 0.0140914
62 *308:11 *317:19 0.00213513
63 *309:33 *317:39 9.39896e-05
64 *309:39 *317:41 0.0202658
*RES
1 *537:module_status_flags_out[55] *317:17 26.8076 
2 *317:17 *317:19 104.868 
3 *317:19 *317:29 16.2758 
4 *317:29 *317:31 837.375 
5 *317:31 *317:39 8.67963 
6 *317:39 *317:41 124.158 
7 *317:41 *317:51 34.2117 
8 *317:51 *317:53 86.375 
9 *317:53 *317:59 21.5714 
10 *317:59 *317:63 35.4286 
11 *317:63 *317:67 44.6964 
12 *317:67 *317:71 29.2679 
13 *317:71 *317:75 32.25 
14 *317:75 *317:77 86.375 
15 *317:77 *317:79 4.5 
16 *317:79 *317:81 46.5714 
17 *317:81 *317:87 21.4464 
18 *317:87 *317:91 41.0536 
19 *317:91 *317:95 29.2679 
20 *317:95 *317:97 141.893 
21 *317:97 *317:107 47.7857 
22 *317:107 *317:111 35.4286 
23 *317:111 *317:115 20.4107 
24 *317:115 *317:119 44.4643 
25 *317:119 *317:123 35.2857 
26 *317:123 *317:127 29.2679 
27 *317:127 *317:129 101.518 
28 *317:129 *317:135 21.8571 
29 *317:135 la_data_out[55] 54.25 
*END

*D_NET *318 0.459973
*CONN
*P la_data_out[56] O
*I *537:module_status_flags_out[56] O *D phase_099_top_integration
*CAP
1 la_data_out[56] 0.00365395
2 *537:module_status_flags_out[56] 0.000248303
3 *318:93 0.00552603
4 *318:89 0.00468511
5 *318:79 0.0130926
6 *318:77 0.0129135
7 *318:71 0.00456699
8 *318:69 0.0059068
9 *318:55 0.0135205
10 *318:53 0.0117504
11 *318:49 0.00983608
12 *318:41 0.00859395
13 *318:37 0.00656487
14 *318:31 0.0208907
15 *318:29 0.0156511
16 *318:23 0.0213106
17 *318:21 0.0221115
18 *318:11 0.00889549
19 *318:9 0.00797919
20 la_data_out[56] *356:9 0.00208916
21 *318:11 *344:11 0.00359363
22 *318:11 *346:13 0.0164627
23 *318:11 *352:21 0.00588826
24 *318:21 *321:10 0.000654153
25 *318:21 *321:20 0.000161902
26 *318:21 *338:18 0.0002845
27 *318:21 *338:28 0.000119136
28 *318:21 *340:16 0.000143459
29 *318:23 *329:15 0
30 *318:23 *337:9 0.0518401
31 *318:31 *319:9 0.00490251
32 *318:31 *325:22 0
33 *318:31 *338:38 0
34 *318:55 *354:9 0.0114102
35 *318:89 la_data_out[58] 0.00141381
36 *318:89 *328:13 0
37 *318:89 *335:15 0
38 io_oeb[1] *318:77 0
39 *64:13 *318:11 0.0133958
40 *65:13 *318:21 9.23473e-06
41 *67:17 *318:21 0.00220973
42 *125:7 *318:9 0
43 *131:9 *318:23 0.00566845
44 *131:13 *318:29 0.000353806
45 *274:11 *318:11 0.00255177
46 *282:9 *318:31 0.00344146
47 *309:95 *318:41 0.00253171
48 *312:9 *318:11 0.0432553
49 *312:13 *318:23 0.0864701
50 *317:19 *318:11 0.000164645
51 *317:97 *318:71 0.00325987
52 *317:115 *318:79 0
*RES
1 *537:module_status_flags_out[56] *318:9 6.85643 
2 *318:9 *318:11 67.6455 
3 *318:11 *318:21 18.2553 
4 *318:21 *318:23 1060.2 
5 *318:23 *318:29 7.80387 
6 *318:29 *318:31 338.911 
7 *318:31 *318:37 22.001 
8 *318:37 *318:41 34.4993 
9 *318:41 *318:49 44.1598 
10 *318:49 *318:53 9.43853 
11 *318:53 *318:55 265.446 
12 *318:55 *318:69 33.7041 
13 *318:69 *318:71 52.3393 
14 *318:71 *318:77 14.5061 
15 *318:77 *318:79 209.589 
16 *318:79 *318:89 46.2668 
17 *318:89 *318:93 8.862 
18 *318:93 la_data_out[56] 87.4911 
*END

*D_NET *319 0.307076
*CONN
*P la_data_out[57] O
*I *537:module_status_flags_out[57] O *D phase_099_top_integration
*CAP
1 la_data_out[57] 0.0480791
2 *537:module_status_flags_out[57] 0.000578902
3 *319:15 0.0480791
4 *319:13 0.0222584
5 *319:11 0.0222584
6 *319:9 0.0152146
7 *319:7 0.0157935
8 *319:9 *338:38 0.00154119
9 *319:9 *341:15 0
10 *282:9 *319:9 0.00920337
11 *309:15 *319:9 0.0508443
12 *315:15 *319:9 4.84855e-05
13 *316:15 *319:9 0.068274
14 *318:31 *319:9 0.00490251
*RES
1 *537:module_status_flags_out[57] *319:7 4.55053 
2 *319:7 *319:9 909.625 
3 *319:9 *319:11 3.41 
4 *319:11 *319:13 65.9159 
5 *319:13 *319:15 3.41 
6 *319:15 la_data_out[57] 981.205 
*END

*D_NET *320 0.389111
*CONN
*P la_data_out[58] O
*I *537:module_status_flags_out[58] O *D phase_099_top_integration
*CAP
1 la_data_out[58] 0.0474397
2 *537:module_status_flags_out[58] 0.00375012
3 *320:37 0.0474847
4 *320:35 0.00271716
5 *320:33 0.0035115
6 *320:19 0.0101449
7 *320:17 0.00930564
8 *320:15 0.0160699
9 *320:13 0.01982
10 *320:13 *332:13 0.0162448
11 *320:13 *341:13 0.000126641
12 *320:15 *326:15 0.0180532
13 *320:15 *363:25 0.00137115
14 *320:19 *334:29 0.0184203
15 *320:19 *341:29 0.00591976
16 *320:35 *360:15 0.000215631
17 *31:9 *320:15 2.30116e-06
18 *31:13 *320:13 0.00411453
19 *38:9 *320:33 2.14879e-05
20 *61:9 *320:15 0.00678623
21 *61:19 *320:15 3.34078e-05
22 *76:9 *320:33 1.46491e-05
23 *275:11 *320:15 0.0383462
24 *292:9 *320:13 0.000222969
25 *292:15 *320:15 0
26 *295:17 *320:13 0.00833206
27 *295:19 *320:13 0.00166657
28 *295:31 *320:15 0.00817795
29 *298:15 *320:15 0.0555631
30 *307:19 *320:19 0.00881021
31 *307:19 *320:33 0.00120964
32 *309:33 *320:15 4.36671e-05
33 *312:93 la_data_out[58] 0
34 *315:11 *320:13 0.00126282
35 *315:23 *320:19 0.00554626
36 *315:23 *320:33 0
37 *317:31 *320:15 0.0269476
38 *318:89 la_data_out[58] 0.00141381
*RES
1 *537:module_status_flags_out[58] *320:13 44.2727 
2 *320:13 *320:15 1078.41 
3 *320:15 *320:17 3.41 
4 *320:17 *320:19 60.0425 
5 *320:19 *320:33 13.0735 
6 *320:33 *320:35 54.2321 
7 *320:35 *320:37 0.946429 
8 *320:37 la_data_out[58] 978.098 
*END

*D_NET *321 0.482743
*CONN
*P la_data_out[59] O
*I *537:module_status_flags_out[59] O *D phase_099_top_integration
*CAP
1 la_data_out[59] 0.0340132
2 *537:module_status_flags_out[59] 0.000988084
3 *321:28 0.0340132
4 *321:26 0.0108555
5 *321:24 0.0108555
6 *321:22 0.0135158
7 *321:20 0.0140776
8 *321:10 0.0102323
9 *321:8 0.0106586
10 la_data_out[59] *335:9 0.0734763
11 *321:8 *325:18 0.000676319
12 *321:8 *338:18 0.000687502
13 *321:10 *325:18 0.0175874
14 *321:20 *325:18 0.000687391
15 *321:20 *338:28 0.000256182
16 *321:22 la_data_out[81] 0.0876485
17 *321:22 *337:9 0.00027063
18 *321:26 *327:15 0.0102555
19 *321:26 *336:15 0.00269901
20 *321:26 *359:13 0.00129368
21 *321:26 *361:13 0.017153
22 *65:13 *321:20 0.00012968
23 *67:17 *321:8 0.00305459
24 *67:17 *321:10 0.0105255
25 *76:9 *321:26 0
26 *131:9 *321:22 0.00788311
27 *284:13 *321:26 0.0036051
28 *305:13 *321:26 0.0135983
29 *311:13 *321:26 0.00431454
30 *312:13 *321:22 0.0869148
31 *312:27 *321:26 0
32 *318:21 *321:10 0.000654153
33 *318:21 *321:20 0.000161902
*RES
1 *537:module_status_flags_out[59] *321:8 8.54553 
2 *321:8 *321:10 53.016 
3 *321:10 *321:20 5.21637 
4 *321:20 *321:22 1074.77 
5 *321:22 *321:24 3.41 
6 *321:24 *321:26 61.2316 
7 *321:26 *321:28 3.41 
8 *321:28 la_data_out[59] 1025.53 
*END

*D_NET *322 0.531315
*CONN
*P la_data_out[5] O
*P wbs_dat_o[5] O
*I *537:module_status_flags_out[5] O *D phase_099_top_integration
*CAP
1 la_data_out[5] 0.000695945
2 wbs_dat_o[5] 0.000590753
3 *537:module_status_flags_out[5] 0.000657739
4 *322:35 0.00807306
5 *322:33 0.00817826
6 *322:31 0.102166
7 *322:29 0.102166
8 *322:27 0.0135104
9 *322:25 0.0136708
10 *322:19 0.00852725
11 *322:17 0.00841149
12 *322:11 0.00142034
13 *322:9 0.00203352
14 la_data_out[5] *333:37 0.000270646
15 la_data_out[5] *344:29 0.000259109
16 *322:27 *344:19 0.00220876
17 *322:35 *333:37 0.0510211
18 *322:35 *344:29 0.0493167
19 wbs_dat_o[10] *322:35 0.000333934
20 wbs_dat_o[11] *322:35 0.000350335
21 wbs_dat_o[12] *322:35 0.000951655
22 wbs_dat_o[13] *322:35 0.000573196
23 wbs_dat_o[16] *322:35 0.00226765
24 wbs_dat_o[17] *322:35 0.000600035
25 wbs_dat_o[27] *322:35 0.00153265
26 *537:rf_adc_i_in[3] *322:25 0.000276209
27 *30:21 *322:11 0.0113557
28 *41:21 *322:11 0.0113557
29 *62:19 *322:17 0.00012401
30 *113:7 *322:17 0.000125731
31 *134:27 *322:35 0.000302271
32 *135:11 *322:27 0.00615392
33 *135:37 *322:35 0.000584239
34 *136:43 *322:35 0.000919786
35 *227:7 *322:31 0
36 *272:11 *322:19 0.0101821
37 *274:11 *322:27 0.0530141
38 *278:23 *322:35 0.000217292
39 *281:11 *322:19 0.0268356
40 *287:29 *322:35 0.00229152
41 *308:11 *322:27 0.0270656
42 *317:19 *322:27 0.000724248
*RES
1 *537:module_status_flags_out[5] *322:9 14.5804 
2 *322:9 *322:11 106.911 
3 *322:11 *322:17 10.6429 
4 *322:17 *322:19 252.714 
5 *322:19 *322:25 11.5261 
6 *322:25 *322:27 102.238 
7 *322:27 *322:29 3.41 
8 *322:29 *322:31 2096.74 
9 *322:31 *322:33 4.5 
10 *322:33 *322:35 499.143 
11 *322:35 wbs_dat_o[5] 15.9464 
12 *322:33 la_data_out[5] 18.5357 
*END

*D_NET *323 0.628613
*CONN
*P la_data_out[60] O
*I *537:module_status_flags_out[60] O *D phase_099_top_integration
*CAP
1 la_data_out[60] 0.00163348
2 *537:module_status_flags_out[60] 0.000898817
3 *323:29 0.00831836
4 *323:27 0.00668488
5 *323:25 0.0286016
6 *323:23 0.0313452
7 *323:13 0.0186736
8 *323:11 0.0168288
9 *323:13 *329:11 0.0017186
10 *323:13 *331:11 0.0259053
11 *323:13 *334:13 0.00182988
12 *323:23 *340:6 0.00545282
13 *323:23 *345:11 0.00630512
14 *323:25 la_data_out[81] 0.0456525
15 *323:25 *325:22 0.168948
16 *323:25 *334:15 0
17 *323:25 *338:30 0.00693317
18 *323:29 *358:13 0.036494
19 *31:13 *323:13 0.0216079
20 *66:13 *323:23 0.00100577
21 *75:9 *323:29 0.036494
22 *114:13 *323:13 0
23 *119:11 *323:13 0
24 *120:11 *323:13 0
25 *121:11 *323:13 0
26 *129:13 *323:13 0.0343122
27 *131:9 *323:25 0.00823326
28 *132:13 *323:13 0.0261555
29 *290:9 *323:11 0
30 *304:15 *323:25 0.0880136
31 *312:9 *323:23 0.000567019
*RES
1 *537:module_status_flags_out[60] *323:11 18.1243 
2 *323:11 *323:13 109.732 
3 *323:13 *323:23 34.5079 
4 *323:23 *323:25 2077.77 
5 *323:25 *323:27 3.41 
6 *323:27 *323:29 58.2048 
7 *323:29 la_data_out[60] 30.7939 
*END

*D_NET *324 0.157225
*CONN
*P la_data_out[61] O
*I *537:module_status_flags_out[61] O *D phase_099_top_integration
*CAP
1 la_data_out[61] 0.00129574
2 *537:module_status_flags_out[61] 8.02418e-05
3 *324:13 0.0136778
4 *324:11 0.0123821
5 *324:9 0.0494228
6 *324:7 0.049503
7 *324:13 *349:13 0.0165224
8 *324:13 *350:13 0.0129456
9 la_data_out[39] *324:13 0.000103968
10 *194:9 *324:13 0.00129164
11 *205:9 *324:13 0
12 *205:15 *324:13 0
13 *227:9 *324:13 0
14 *308:123 *324:9 0
15 *309:147 *324:13 0
*RES
1 *537:module_status_flags_out[61] *324:7 1.60714 
2 *324:7 *324:9 1012.23 
3 *324:9 *324:11 3.41 
4 *324:11 *324:13 62.0964 
5 *324:13 la_data_out[61] 24.7225 
*END

*D_NET *325 0.540977
*CONN
*P la_data_out[62] O
*I *537:module_status_flags_out[62] O *D phase_099_top_integration
*CAP
1 la_data_out[62] 0.00169832
2 *537:module_status_flags_out[62] 0.00121139
3 *325:26 0.00828217
4 *325:24 0.00658386
5 *325:22 0.0637239
6 *325:20 0.0637239
7 *325:18 0.0195648
8 *325:16 0.0207762
9 *325:22 *334:15 0
10 *325:22 *338:30 0.00693317
11 *325:26 *326:19 0.030166
12 *325:26 *358:13 0.0329765
13 *65:13 *325:18 0.0546687
14 *67:17 *325:18 0.000647845
15 *127:16 *325:18 0.0285151
16 *130:8 *325:18 0.00102827
17 *130:10 *325:16 0.00297011
18 *131:9 *325:22 0.00823326
19 *282:9 *325:22 0
20 *294:9 la_data_out[62] 0
21 *299:17 *325:16 0.00137406
22 *312:27 *325:22 0
23 *318:31 *325:22 0
24 *321:8 *325:18 0.000676319
25 *321:10 *325:18 0.0175874
26 *321:20 *325:18 0.000687391
27 *323:25 *325:22 0.168948
*RES
1 *537:module_status_flags_out[62] *325:16 16.3933 
2 *325:16 *325:18 118.489 
3 *325:18 *325:20 3.41 
4 *325:20 *325:22 2071.7 
5 *325:22 *325:24 3.41 
6 *325:24 *325:26 52.5836 
7 *325:26 la_data_out[62] 32.0082 
*END

*D_NET *326 0.524746
*CONN
*P la_data_out[63] O
*I *537:module_status_flags_out[63] O *D phase_099_top_integration
*CAP
1 la_data_out[63] 0.00173889
2 *537:module_status_flags_out[63] 0.000393182
3 *326:19 0.0129145
4 *326:17 0.0111756
5 *326:15 0.0448805
6 *326:13 0.0448805
7 *326:11 0.0151576
8 *326:9 0.0155508
9 *326:9 *351:17 0
10 *326:11 *330:13 0
11 *326:15 *331:15 0
12 *326:15 *345:15 0.169375
13 *537:rf_adc_i_in[6] *326:9 0
14 *64:13 *326:11 0.00129727
15 *135:11 *326:11 0.0059265
16 *136:11 *326:11 0.0126722
17 *275:11 *326:15 0.000921304
18 *292:15 *326:15 0.000128434
19 *293:9 *326:15 0
20 *295:29 *326:11 5.43711e-05
21 *295:31 *326:15 0.0277114
22 *298:15 *326:15 0.055334
23 *302:9 *326:15 0
24 *309:33 *326:15 4.52619e-05
25 *317:19 *326:11 0.0563697
26 *320:15 *326:15 0.0180532
27 *325:26 *326:19 0.030166
*RES
1 *537:module_status_flags_out[63] *326:9 9.285 
2 *326:9 *326:11 91.7158 
3 *326:11 *326:13 3.41 
4 *326:13 *326:15 2080.2 
5 *326:15 *326:17 3.41 
6 *326:17 *326:19 48.0434 
7 *326:19 la_data_out[63] 32.6154 
*END

*D_NET *327 0.126315
*CONN
*P la_data_out[64] O
*I *537:module_status_flags_out[64] O *D phase_099_top_integration
*CAP
1 la_data_out[64] 0.0496331
2 *537:module_status_flags_out[64] 0.0032784
3 *327:15 0.0529115
4 *327:15 la_data_out[70] 0
5 *327:15 *359:13 0.00512479
6 *304:19 *327:15 0.00101998
7 *314:19 *327:15 0.00111774
8 *317:91 la_data_out[64] 0.00297435
9 *321:26 *327:15 0.0102555
*RES
1 *537:module_status_flags_out[64] *327:15 33.3862 
2 *327:15 la_data_out[64] 1024.92 
*END

*D_NET *328 0.13614
*CONN
*P la_data_out[65] O
*I *537:module_status_flags_out[65] O *D phase_099_top_integration
*CAP
1 la_data_out[65] 0.00580971
2 *537:module_status_flags_out[65] 8.83825e-05
3 *328:15 0.00580971
4 *328:13 0.0172267
5 *328:11 0.0172267
6 *328:9 0.0449454
7 *328:7 0.0450338
8 *318:89 *328:13 0
*RES
1 *537:module_status_flags_out[65] *328:7 1.60714 
2 *328:7 *328:9 921.161 
3 *328:9 *328:11 3.41 
4 *328:11 *328:13 48.4758 
5 *328:13 *328:15 3.41 
6 *328:15 la_data_out[65] 112.384 
*END

*D_NET *329 0.421134
*CONN
*P la_data_out[66] O
*I *537:module_status_flags_out[66] O *D phase_099_top_integration
*CAP
1 la_data_out[66] 0.000914979
2 *537:module_status_flags_out[66] 0.00067423
3 *329:19 0.00516801
4 *329:17 0.00425303
5 *329:15 0.0829651
6 *329:13 0.0829651
7 *329:11 0.0246126
8 *329:9 0.0252868
9 *329:11 *363:19 0
10 *329:15 *337:9 0
11 *329:15 *355:9 0
12 *329:15 *364:9 0
13 *329:19 la_data_out[80] 0.000398453
14 *329:19 *330:19 0.0220519
15 *329:19 *331:23 4.1228e-05
16 *329:19 *338:42 0.000416574
17 *329:19 *350:21 0
18 *31:13 *329:11 0.00176996
19 *61:21 *329:11 0.0178065
20 *63:17 *329:15 0
21 *63:21 *329:11 0.000121659
22 *64:23 *329:11 0.000817028
23 *132:13 *329:11 0.00493368
24 *227:17 *329:19 0.00519571
25 *286:9 *329:9 0
26 *291:11 *329:11 0.00214117
27 *295:17 *329:11 0.00230891
28 *295:19 *329:11 0.00722025
29 *295:53 *329:19 0
30 *298:35 *329:19 0.00451268
31 *298:39 *329:19 0.0151747
32 *312:13 *329:15 0
33 *314:15 *329:15 0.0879992
34 *315:11 *329:11 0.000460071
35 *316:11 *329:11 0.0192055
36 *318:23 *329:15 0
37 *323:13 *329:11 0.0017186
*RES
1 *537:module_status_flags_out[66] *329:9 15.3661 
2 *329:9 *329:11 721.339 
3 *329:11 *329:13 4.5 
4 *329:13 *329:15 2101.45 
5 *329:15 *329:17 4.5 
6 *329:17 *329:19 242.446 
7 *329:19 la_data_out[66] 18.6786 
*END

*D_NET *330 0.479456
*CONN
*P la_data_out[67] O
*I *537:module_status_flags_out[67] O *D phase_099_top_integration
*CAP
1 la_data_out[67] 0.000939969
2 *537:module_status_flags_out[67] 0.000617549
3 *330:19 0.00577168
4 *330:17 0.00483171
5 *330:15 0.0644651
6 *330:13 0.0753895
7 *330:9 0.011542
8 *330:13 *332:13 0.00864178
9 *330:13 *341:13 0.00494791
10 *330:13 *357:11 0.00152918
11 *330:13 *363:19 0.00147049
12 *330:15 *332:15 0.171026
13 *330:15 *345:15 1.15058e-05
14 *330:19 *338:42 0.0103369
15 *330:19 *350:21 0
16 *30:21 *330:13 0.00580075
17 *31:13 *330:13 0.00143652
18 *41:21 *330:13 0.00393919
19 *52:21 *330:13 0.00839382
20 *61:21 *330:13 0.00197052
21 *63:21 *330:13 0.0012783
22 *76:15 *330:15 0.00703124
23 *76:19 *330:15 0.00433551
24 *76:21 *330:15 0.0265876
25 *227:17 *330:19 0.00497926
26 *281:11 *330:13 0.000756525
27 *292:19 *330:19 0
28 *295:29 *330:13 2.89656e-05
29 *295:29 *330:15 9.58479e-05
30 *295:31 *330:15 0.0236624
31 *298:11 *330:13 0.00149058
32 *298:33 *330:15 0.000156762
33 *307:11 *330:13 0.00393919
34 *326:11 *330:13 0
35 *329:19 *330:19 0.0220519
*RES
1 *537:module_status_flags_out[67] *330:9 12.9279 
2 *330:9 *330:13 46.4087 
3 *330:13 *330:15 2098.56 
4 *330:15 *330:17 4.5 
5 *330:17 *330:19 208.768 
6 *330:19 la_data_out[67] 18.9821 
*END

*D_NET *331 0.401729
*CONN
*P la_data_out[68] O
*I *537:module_status_flags_out[68] O *D phase_099_top_integration
*CAP
1 la_data_out[68] 0.000814423
2 *537:module_status_flags_out[68] 0.000914929
3 *331:23 0.0046843
4 *331:21 0.00392904
5 *331:15 0.0682925
6 *331:13 0.0682334
7 *331:11 0.0100241
8 *331:9 0.010939
9 *331:9 *345:9 0
10 *331:9 *352:19 0.000104778
11 *331:11 *334:13 0.00358685
12 *331:15 *334:15 0
13 *331:15 *338:38 0
14 *331:15 *340:18 0.167138
15 *331:15 *341:15 7.72233e-06
16 *331:23 la_data_out[80] 4.66174e-05
17 *31:9 *331:15 0
18 *114:13 *331:11 0.00477882
19 *249:17 *331:23 0.00456415
20 *295:41 *331:15 0
21 *295:43 *331:23 0.0205755
22 *295:53 *331:23 0.000359229
23 *298:35 *331:23 0.00314321
24 *298:39 *331:23 0.00313561
25 *302:9 *331:15 0
26 *307:15 *331:15 0.000509625
27 *315:15 *331:15 0
28 *317:31 *331:15 0
29 *323:13 *331:11 0.0259053
30 *326:15 *331:15 0
31 *329:19 *331:23 4.1228e-05
*RES
1 *537:module_status_flags_out[68] *331:9 18.1957 
2 *331:9 *331:11 52.0071 
3 *331:11 *331:13 3.41 
4 *331:13 *331:15 2105.09 
5 *331:15 *331:21 5.3125 
6 *331:21 *331:23 198.089 
7 *331:23 la_data_out[68] 17.1607 
*END

*D_NET *332 0.518963
*CONN
*P la_data_out[69] O
*I *537:module_status_flags_out[69] O *D phase_099_top_integration
*CAP
1 la_data_out[69] 0.000986544
2 *537:module_status_flags_out[69] 0.00448861
3 *332:21 0.00827762
4 *332:15 0.0338258
5 *332:13 0.0310233
6 *332:13 *341:13 0.00499358
7 *332:13 *363:19 0.00311972
8 *332:15 *345:15 6.54002e-05
9 *332:21 *342:15 0
10 *332:21 *350:21 0.00143639
11 *332:21 *356:13 0
12 *31:13 *332:13 0.000158899
13 *61:21 *332:13 0.00146333
14 *63:21 *332:13 0.00280057
15 *76:15 *332:15 0.00393266
16 *76:19 *332:15 0.00234562
17 *76:21 *332:15 0.0148708
18 *205:17 *332:21 0.01956
19 *292:11 *332:13 0.00312877
20 *292:15 *332:15 0.170986
21 *292:19 *332:21 0.00165156
22 *292:25 la_data_out[69] 0
23 *295:17 *332:13 0.00201271
24 *295:29 *332:15 3.37708e-05
25 *295:31 *332:15 0.0118312
26 *298:33 *332:21 5.73955e-05
27 *320:13 *332:13 0.0162448
28 *330:13 *332:13 0.00864178
29 *330:15 *332:15 0.171026
*RES
1 *537:module_status_flags_out[69] *332:13 48.3429 
2 *332:13 *332:15 2099.02 
3 *332:15 *332:21 37.9998 
4 *332:21 la_data_out[69] 15.2411 
*END

*D_NET *333 0.412184
*CONN
*P wbs_dat_o[6] O
*P la_data_out[6] O
*I *537:module_status_flags_out[6] O *D phase_099_top_integration
*CAP
1 wbs_dat_o[6] 0.000615743
2 la_data_out[6] 0.000686705
3 *537:module_status_flags_out[6] 0.000594293
4 *333:37 0.0105984
5 *333:35 0.00998261
6 *333:27 0.102236
7 *333:25 0.108652
8 *333:11 0.0144017
9 *333:9 0.00789302
10 *333:37 *344:29 0.000920947
11 *333:37 *355:39 0.00287603
12 la_data_out[5] *333:37 0.000270646
13 wbs_dat_o[13] *333:37 0.000392518
14 wbs_dat_o[14] *333:37 0.000337565
15 wbs_dat_o[17] *333:37 0.00170408
16 *126:11 *333:11 0.00985737
17 *126:15 *333:25 0.00119893
18 *127:16 *333:25 0
19 *130:10 *333:25 0
20 *134:27 *333:37 0.000354236
21 *277:11 *333:11 0.0242116
22 *277:41 *333:37 0.00961037
23 *281:11 *333:11 0.0242514
24 *285:31 *333:37 0.0245541
25 *286:15 *333:25 0.000831369
26 *287:29 *333:37 0.00412583
27 *291:11 *333:11 6.13757e-06
28 *322:35 *333:37 0.0510211
*RES
1 *537:module_status_flags_out[6] *333:9 13.9732 
2 *333:9 *333:11 410.839 
3 *333:11 *333:25 47.9392 
4 *333:25 *333:27 2084.29 
5 *333:27 la_data_out[6] 11.75 
6 *333:27 *333:35 4.5 
7 *333:35 *333:37 501.607 
8 *333:37 wbs_dat_o[6] 16.25 
*END

*D_NET *334 0.312515
*CONN
*P la_data_out[70] O
*I *537:module_status_flags_out[70] O *D phase_099_top_integration
*CAP
1 la_data_out[70] 0.0507173
2 *537:module_status_flags_out[70] 0.0031076
3 *334:29 0.0550255
4 *334:15 0.0405844
5 *334:13 0.0393838
6 *334:13 *341:13 5.44659e-05
7 *334:15 la_data_out[81] 0
8 *334:15 *338:30 0.018323
9 *334:29 *338:36 0.000258104
10 *334:29 *341:29 0.000220337
11 *31:13 *334:13 0.00839607
12 *38:9 *334:29 2.1479e-05
13 *76:9 *334:29 1.46412e-05
14 *282:9 *334:15 0.0377058
15 *298:9 *334:13 0
16 *309:15 *334:15 0.0260013
17 *312:27 *334:29 6.37188e-06
18 *315:21 *334:29 0.00549453
19 *315:23 *334:29 0.0033636
20 *316:15 *334:15 0
21 *317:75 la_data_out[70] 0
22 *320:19 *334:29 0.0184203
23 *323:13 *334:13 0.00182988
24 *323:25 *334:15 0
25 *325:22 *334:15 0
26 *327:15 la_data_out[70] 0
27 *331:11 *334:13 0.00358685
28 *331:15 *334:15 0
*RES
1 *537:module_status_flags_out[70] *334:13 34.441 
2 *334:13 *334:15 1079.62 
3 *334:15 *334:29 44.6851 
4 *334:29 la_data_out[70] 1032.21 
*END

*D_NET *335 0.165071
*CONN
*P la_data_out[71] O
*I *537:module_status_flags_out[71] O *D phase_099_top_integration
*CAP
1 la_data_out[71] 0.00645513
2 *537:module_status_flags_out[71] 8.83825e-05
3 *335:15 0.0176618
4 *335:9 0.0392538
5 *335:7 0.0281355
6 la_data_out[59] *335:9 0.0734763
7 *318:89 *335:15 0
*RES
1 *537:module_status_flags_out[71] *335:7 1.60714 
2 *335:7 *335:9 909.018 
3 *335:9 *335:15 40.3059 
4 *335:15 la_data_out[71] 124.527 
*END

*D_NET *336 0.107605
*CONN
*P la_data_out[72] O
*I *537:module_status_flags_out[72] O *D phase_099_top_integration
*CAP
1 la_data_out[72] 0.0499467
2 *537:module_status_flags_out[72] 0.00147644
3 *336:15 0.0514232
4 *76:9 *336:15 0
5 *309:129 la_data_out[72] 0.00205939
6 *312:29 *336:15 0
7 *317:67 la_data_out[72] 0
8 *321:26 *336:15 0.00269901
*RES
1 *537:module_status_flags_out[72] *336:15 20.1368 
2 *336:15 la_data_out[72] 1026.13 
*END

*D_NET *337 0.239697
*CONN
*P la_data_out[73] O
*I *537:module_status_flags_out[73] O *D phase_099_top_integration
*CAP
1 la_data_out[73] 0.0488957
2 *537:module_status_flags_out[73] 0.000865273
3 *337:15 0.0568688
4 *337:9 0.0198644
5 *337:7 0.0127566
6 *337:9 la_data_out[81] 0
7 *337:9 *355:9 0.000135187
8 *337:9 *364:9 0.040035
9 *111:5 *337:7 0.000192917
10 *112:5 *337:7 0.000192917
11 *131:9 *337:9 0.00566845
12 *275:15 *337:15 0
13 *309:39 *337:15 0
14 *309:111 la_data_out[73] 0.00175499
15 *312:13 *337:9 0.000355804
16 *318:23 *337:9 0.0518401
17 *321:22 *337:9 0.00027063
18 *329:15 *337:9 0
*RES
1 *537:module_status_flags_out[73] *337:7 5.63153 
2 *337:7 *337:9 666.768 
3 *337:9 *337:15 29.3518 
4 *337:15 la_data_out[73] 1011.56 
*END

*D_NET *338 0.450976
*CONN
*P la_data_out[74] O
*I *537:module_status_flags_out[74] O *D phase_099_top_integration
*CAP
1 la_data_out[74] 0.000962587
2 *537:module_status_flags_out[74] 0.00604605
3 *338:42 0.00301061
4 *338:40 0.00204802
5 *338:38 0.0387888
6 *338:36 0.0389505
7 *338:30 0.0685913
8 *338:28 0.0686139
9 *338:18 0.0191218
10 *338:16 0.0249835
11 *338:16 *340:6 0.00883916
12 *338:16 *353:11 0.0012221
13 *338:18 *353:11 0
14 *338:28 *341:15 0.000139207
15 *338:38 *340:18 0.0282811
16 *338:38 *341:15 0.000152465
17 *338:42 *340:22 0.00763831
18 *338:42 *350:21 0
19 *537:rf_adc_i_in[9] *338:16 0.000148676
20 *67:17 *338:18 0.0185816
21 *130:8 *338:18 0.00153097
22 *130:10 *338:16 0.000695358
23 *131:9 *338:30 0.0142164
24 *140:15 *338:30 0
25 *205:17 *338:42 0.00217687
26 *274:11 *338:16 0.000714566
27 *282:9 *338:30 0.00823326
28 *292:19 *338:42 0
29 *299:15 *338:16 0.00274682
30 *299:17 *338:16 0.000761886
31 *304:15 *338:30 0.00693317
32 *307:15 *338:38 7.46044e-05
33 *312:9 *338:16 0.00532779
34 *314:11 *338:18 0.0251349
35 *315:15 *338:28 0.000137791
36 *315:21 *338:36 6.90249e-05
37 *316:19 *338:36 1.28217e-05
38 *318:21 *338:18 0.0002845
39 *318:21 *338:28 0.000119136
40 *318:31 *338:38 0
41 *319:9 *338:38 0.00154119
42 *321:8 *338:18 0.000687502
43 *321:20 *338:28 0.000256182
44 *323:25 *338:30 0.00693317
45 *325:22 *338:30 0.00693317
46 *329:19 *338:42 0.000416574
47 *330:19 *338:42 0.0103369
48 *331:15 *338:38 0
49 *334:15 *338:30 0.018323
50 *334:29 *338:36 0.000258104
*RES
1 *537:module_status_flags_out[74] *338:16 42.0208 
2 *338:16 *338:18 464.232 
3 *338:18 *338:28 13.558 
4 *338:28 *338:30 186.693 
5 *338:30 *338:36 7.26337 
6 *338:36 *338:38 1023.01 
7 *338:38 *338:40 4.5 
8 *338:40 *338:42 105.268 
9 *338:42 la_data_out[74] 19.2857 
*END

*D_NET *339 0.13236
*CONN
*P la_data_out[75] O
*I *537:module_status_flags_out[75] O *D phase_099_top_integration
*CAP
1 la_data_out[75] 0.00145657
2 *537:module_status_flags_out[75] 8.85704e-05
3 *339:15 0.00341
4 *339:9 0.0513108
5 *339:7 0.0494459
6 *339:9 *350:19 2.35042e-06
7 *339:15 *343:15 0.0133246
8 *194:9 *339:15 0.0133211
9 *285:11 *339:7 0
10 *285:11 *339:9 0
*RES
1 *537:module_status_flags_out[75] *339:7 1.60714 
2 *339:7 *339:9 1010.41 
3 *339:9 *339:15 27.6222 
4 *339:15 la_data_out[75] 23.1339 
*END

*D_NET *340 0.49325
*CONN
*P la_data_out[76] O
*I *537:module_status_flags_out[76] O *D phase_099_top_integration
*CAP
1 la_data_out[76] 0.000987448
2 *537:module_status_flags_out[76] 0
3 *340:22 0.00334468
4 *340:20 0.00235723
5 *340:18 0.0381013
6 *340:16 0.0391457
7 *340:6 0.0151164
8 *340:4 0.014072
9 *340:6 *345:11 0.0135686
10 *340:6 *351:19 0.000545343
11 *340:6 *352:19 0.00167736
12 *340:22 *350:21 0
13 *537:rf_adc_i_in[7] *340:6 0.000574103
14 *65:13 *340:16 0.000282685
15 *66:13 *340:6 0.0515297
16 *127:14 *340:6 0.00235994
17 *130:10 *340:6 0.000773559
18 *205:17 *340:22 0.00158523
19 *292:19 *340:22 0
20 *307:15 *340:18 0.0854469
21 *312:9 *340:6 0.00428913
22 *318:21 *340:16 0.000143459
23 *323:23 *340:6 0.00545282
24 *331:15 *340:18 0.167138
25 *338:16 *340:6 0.00883916
26 *338:38 *340:18 0.0282811
27 *338:42 *340:22 0.00763831
*RES
1 *537:module_status_flags_out[76] *340:4 3.41 
2 *340:4 *340:6 93.049 
3 *340:6 *340:16 30.4011 
4 *340:16 *340:18 2084.45 
5 *340:18 *340:20 4.5 
6 *340:20 *340:22 72.4107 
7 *340:22 la_data_out[76] 19.5893 
*END

*D_NET *341 0.303321
*CONN
*P la_data_out[77] O
*I *537:module_status_flags_out[77] O *D phase_099_top_integration
*CAP
1 la_data_out[77] 0.0507212
2 *537:module_status_flags_out[77] 0.0020193
3 *341:29 0.0526014
4 *341:15 0.0221818
5 *341:13 0.022321
6 *341:13 *357:9 0
7 *341:13 *363:19 0.000989521
8 *31:13 *341:13 2.93106e-05
9 *38:9 *341:29 3.01389e-05
10 *61:19 *341:13 6.06376e-05
11 *63:21 *341:13 0.00107541
12 *64:13 *341:13 0
13 *295:29 *341:13 7.84683e-05
14 *307:15 *341:15 0.0863495
15 *307:19 *341:29 0.00226565
16 *312:27 *341:29 2.74485e-05
17 *315:15 *341:15 0.046008
18 *319:9 *341:15 0
19 *320:13 *341:13 0.000126641
20 *320:19 *341:29 0.00591976
21 *330:13 *341:13 0.00494791
22 *331:15 *341:15 7.72233e-06
23 *332:13 *341:13 0.00499358
24 *334:13 *341:13 5.44659e-05
25 *334:29 *341:29 0.000220337
26 *338:28 *341:15 0.000139207
27 *338:38 *341:15 0.000152465
*RES
1 *537:module_status_flags_out[77] *341:13 25.5176 
2 *341:13 *341:15 1077.8 
3 *341:15 *341:29 24.5095 
4 *341:29 la_data_out[77] 1032.21 
*END

*D_NET *342 0.134935
*CONN
*P la_data_out[78] O
*I *537:module_status_flags_out[78] O *D phase_099_top_integration
*CAP
1 la_data_out[78] 0.00122584
2 *537:module_status_flags_out[78] 8.83825e-05
3 *342:15 0.0079967
4 *342:9 0.0554229
5 *342:7 0.0487405
6 *342:7 *359:11 0
7 *342:9 *359:11 0
8 *342:15 *356:13 0.0192666
9 *205:17 *342:15 0
10 *285:11 *342:7 0
11 *285:11 *342:9 0
12 *309:147 *342:15 4.70997e-05
13 *312:61 *342:9 0.00214698
14 *332:21 *342:15 0
*RES
1 *537:module_status_flags_out[78] *342:7 1.60714 
2 *342:7 *342:9 1014.05 
3 *342:9 *342:15 36.9188 
4 *342:15 la_data_out[78] 19.4911 
*END

*D_NET *343 0.16019
*CONN
*P la_data_out[79] O
*I *537:module_status_flags_out[79] O *D phase_099_top_integration
*CAP
1 la_data_out[79] 0.00140694
2 *537:module_status_flags_out[79] 8.83825e-05
3 *343:15 0.00551212
4 *343:9 0.0535174
5 *343:7 0.0495006
6 *343:15 *348:13 0.0233291
7 *343:15 *349:13 0.0010103
8 *343:15 *350:13 0.00539342
9 *194:9 *343:15 0.00409977
10 *309:139 *343:15 0.00300791
11 *339:15 *343:15 0.0133246
*RES
1 *537:module_status_flags_out[79] *343:7 1.60714 
2 *343:7 *343:9 1011.02 
3 *343:9 *343:15 47.2964 
4 *343:15 la_data_out[79] 22.5268 
*END

*D_NET *344 0.474105
*CONN
*P la_data_out[7] O
*P wbs_dat_o[7] O
*I *537:module_status_flags_out[7] O *D phase_099_top_integration
*CAP
1 la_data_out[7] 0.00064999
2 wbs_dat_o[7] 0.000581661
3 *537:module_status_flags_out[7] 0.000319438
4 *344:29 0.0115616
5 *344:27 0.0116902
6 *344:23 0.102142
7 *344:21 0.102082
8 *344:19 0.0193128
9 *344:17 0.0194251
10 *344:11 0.0129517
11 *344:9 0.0131589
12 *344:11 *351:19 0.00299654
13 *344:11 *352:21 0.00721923
14 *344:11 *353:11 0.000196951
15 *344:11 *362:9 0.00199644
16 *344:19 *353:11 0.00725639
17 la_data_out[5] *344:29 0.000259109
18 wbs_dat_o[10] *344:29 0.000524885
19 wbs_dat_o[11] *344:29 0.000751966
20 wbs_dat_o[12] *344:29 0.00173389
21 wbs_dat_o[13] *344:29 0.000599532
22 wbs_dat_o[16] *344:29 0.00199621
23 wbs_dat_o[17] *344:29 0.000643716
24 wbs_dat_o[27] *344:29 0.00141355
25 *537:rf_adc_i_in[2] *344:17 0
26 *62:13 *344:11 0.00421171
27 *103:5 *344:23 0
28 *130:10 *344:19 0
29 *134:27 *344:29 0.000785816
30 *136:43 *344:29 0.000595555
31 *272:27 *344:29 0
32 *274:11 *344:11 0.00425175
33 *274:11 *344:19 0.0193157
34 *275:29 *344:29 0
35 *277:33 *344:27 0.000303375
36 *277:33 *344:29 0.0299669
37 *278:23 *344:29 0.000249963
38 *281:9 *344:9 0
39 *285:31 *344:27 0.000113045
40 *285:31 *344:29 0.000605719
41 *287:29 *344:29 0.00331256
42 *296:9 *344:11 0.000331335
43 *296:9 *344:19 0.00680565
44 *299:17 *344:19 0.016318
45 *309:11 *344:11 0.00943461
46 *318:11 *344:11 0.00359363
47 *322:27 *344:19 0.00220876
48 *322:35 *344:29 0.0493167
49 *333:37 *344:29 0.000920947
*RES
1 *537:module_status_flags_out[7] *344:9 8.8125 
2 *344:9 *344:11 394.411 
3 *344:11 *344:17 9.70464 
4 *344:17 *344:19 94.6705 
5 *344:19 *344:21 3.41 
6 *344:21 *344:23 2094.62 
7 *344:23 *344:27 7.5 
8 *344:27 *344:29 501.196 
9 *344:29 wbs_dat_o[7] 15.6429 
10 *344:27 la_data_out[7] 15.6429 
*END

*D_NET *345 0.499858
*CONN
*P la_data_out[80] O
*I *537:module_status_flags_out[80] O *D phase_099_top_integration
*CAP
1 la_data_out[80] 0.000966005
2 *537:module_status_flags_out[80] 0.000156973
3 *345:15 0.0275753
4 *345:13 0.0266093
5 *345:11 0.00745616
6 *345:9 0.00761314
7 *345:11 *353:11 0.00596526
8 *345:11 *362:9 0.00654245
9 *76:15 *345:15 0.0033596
10 *76:19 *345:15 0.00226777
11 *292:15 *345:15 0.170343
12 *295:31 *345:15 0.0184207
13 *295:41 *345:15 7.40636e-05
14 *298:35 la_data_out[80] 0.000227179
15 *312:9 *345:11 0.03251
16 *323:23 *345:11 0.00630512
17 *326:15 *345:15 0.169375
18 *329:19 la_data_out[80] 0.000398453
19 *330:15 *345:15 1.15058e-05
20 *331:9 *345:9 0
21 *331:23 la_data_out[80] 4.66174e-05
22 *332:15 *345:15 6.54002e-05
23 *340:6 *345:11 0.0135686
*RES
1 *537:module_status_flags_out[80] *345:9 5.64214 
2 *345:9 *345:11 50.7819 
3 *345:11 *345:13 3.41 
4 *345:13 *345:15 2091.88 
5 *345:15 la_data_out[80] 26.6964 
*END

*D_NET *346 0.369865
*CONN
*P la_data_out[81] O
*I *537:module_status_flags_out[81] O *D phase_099_top_integration
*CAP
1 la_data_out[81] 0.0482915
2 *537:module_status_flags_out[81] 0.00345098
3 *346:13 0.0517425
4 la_data_out[81] *364:9 0
5 *346:13 *352:21 0.000144017
6 *64:13 *346:13 0.0185644
7 *131:9 la_data_out[81] 0.00852993
8 *304:15 la_data_out[81] 0.0880196
9 *312:9 *346:13 0.00111947
10 *312:13 la_data_out[81] 0.000238447
11 *318:11 *346:13 0.0164627
12 *321:22 la_data_out[81] 0.0876485
13 *323:25 la_data_out[81] 0.0456525
14 *334:15 la_data_out[81] 0
15 *337:9 la_data_out[81] 0
*RES
1 *537:module_status_flags_out[81] *346:13 40.3742 
2 *346:13 la_data_out[81] 2107.46 
*END

*D_NET *347 0.151734
*CONN
*P la_data_out[82] O
*I *537:module_status_flags_out[82] O *D phase_099_top_integration
*CAP
1 la_data_out[82] 0.073908
2 *537:module_status_flags_out[82] 0.00171475
3 *347:7 0.0756228
4 *30:17 la_data_out[82] 0
5 *138:7 *347:7 0.000488774
*RES
1 *537:module_status_flags_out[82] *347:7 8.15387 
2 *347:7 la_data_out[82] 1514.28 
*END

*D_NET *348 0.167824
*CONN
*P la_data_out[83] O
*I *537:module_status_flags_out[83] O *D phase_099_top_integration
*CAP
1 la_data_out[83] 0.00131699
2 *537:module_status_flags_out[83] 8.83825e-05
3 *348:13 0.00640659
4 *348:11 0.0050896
5 *348:9 0.0494322
6 *348:7 0.0495205
7 *348:13 *349:13 0.00036327
8 *348:13 *354:13 0.0297322
9 *194:9 *348:13 0.00254549
10 *343:15 *348:13 0.0233291
*RES
1 *537:module_status_flags_out[83] *348:7 1.60714 
2 *348:7 *348:9 1011.62 
3 *348:9 *348:11 3.41 
4 *348:11 *348:13 47.5389 
5 *348:13 la_data_out[83] 25.3296 
*END

*D_NET *349 0.223538
*CONN
*P la_data_out[84] O
*I *537:module_status_flags_out[84] O *D phase_099_top_integration
*CAP
1 la_data_out[84] 0.00124129
2 *537:module_status_flags_out[84] 8.43122e-05
3 *349:13 0.0116854
4 *349:11 0.0104441
5 *349:9 0.0494938
6 *349:7 0.0495781
7 *349:13 *350:13 0.00164647
8 *349:13 *354:13 0.0315312
9 *349:13 *356:13 0.049937
10 la_data_out[52] *349:9 0
11 *309:147 *349:13 0
12 *324:13 *349:13 0.0165224
13 *343:15 *349:13 0.0010103
14 *348:13 *349:13 0.00036327
*RES
1 *537:module_status_flags_out[84] *349:7 1.60714 
2 *349:7 *349:9 1012.84 
3 *349:9 *349:11 3.41 
4 *349:11 *349:13 89.6979 
5 *349:13 la_data_out[84] 24.1154 
*END

*D_NET *350 0.228733
*CONN
*P la_data_out[85] O
*I *537:module_status_flags_out[85] O *D phase_099_top_integration
*CAP
1 la_data_out[85] 0.00105555
2 *537:module_status_flags_out[85] 8.02418e-05
3 *350:21 0.0121088
4 *350:19 0.0114124
5 *350:13 0.00933996
6 *350:11 0.00898078
7 *350:9 0.0493393
8 *350:7 0.0494196
9 *194:9 *350:13 0.0464346
10 *292:19 *350:21 0.0191371
11 *309:145 *350:19 0
12 *324:13 *350:13 0.0129456
13 *329:19 *350:21 0
14 *330:19 *350:21 0
15 *332:21 *350:21 0.00143639
16 *338:42 *350:21 0
17 *339:9 *350:19 2.35042e-06
18 *340:22 *350:21 0
19 *343:15 *350:13 0.00539342
20 *349:13 *350:13 0.00164647
*RES
1 *537:module_status_flags_out[85] *350:7 1.60714 
2 *350:7 *350:9 1010.41 
3 *350:9 *350:11 3.41 
4 *350:11 *350:13 72.474 
5 *350:13 *350:19 13.9546 
6 *350:19 *350:21 277.768 
7 *350:21 la_data_out[85] 21.7143 
*END

*D_NET *351 0.373486
*CONN
*P la_data_out[86] O
*I *537:module_status_flags_out[86] O *D phase_099_top_integration
*CAP
1 la_data_out[86] 0.102802
2 *537:module_status_flags_out[86] 0.0015044
3 *351:21 0.102802
4 *351:19 0.00866933
5 *351:17 0.0101737
6 *351:17 *362:7 0
7 *351:19 *352:21 0.0048928
8 *351:19 *362:9 0.0654461
9 *64:13 *351:19 0.000464115
10 *274:11 *351:17 0.0077063
11 *291:9 *351:17 0
12 *309:11 *351:19 0.0488722
13 *312:9 *351:19 0.00890538
14 *317:19 *351:17 0.0077063
15 *326:9 *351:17 0
16 *340:6 *351:19 0.000545343
17 *344:11 *351:19 0.00299654
*RES
1 *537:module_status_flags_out[86] *351:17 30.1961 
2 *351:17 *351:19 616.607 
3 *351:19 *351:21 4.5 
4 *351:21 la_data_out[86] 2106.39 
*END

*D_NET *352 0.290975
*CONN
*P la_data_out[87] O
*I *537:module_status_flags_out[87] O *D phase_099_top_integration
*CAP
1 la_data_out[87] 0.102831
2 *537:module_status_flags_out[87] 0.00109333
3 *352:23 0.102831
4 *352:21 0.0102869
5 *352:19 0.0113803
6 *352:19 *353:11 0.000648611
7 *352:19 *362:9 0.000699409
8 *352:21 *362:9 0.000645261
9 *62:13 *352:21 0.00396473
10 *64:13 *352:21 0.00166595
11 *309:11 *352:21 0.0317573
12 *312:9 *352:19 0.00324462
13 *318:11 *352:21 0.00588826
14 *331:9 *352:19 0.000104778
15 *340:6 *352:19 0.00167736
16 *344:11 *352:21 0.00721923
17 *346:13 *352:21 0.000144017
18 *351:19 *352:21 0.0048928
*RES
1 *537:module_status_flags_out[87] *352:19 21.0813 
2 *352:19 *352:21 398.107 
3 *352:21 *352:23 4.5 
4 *352:23 la_data_out[87] 2107 
*END

*D_NET *353 0.382852
*CONN
*P la_data_out[88] O
*I *537:module_status_flags_out[88] O *D phase_099_top_integration
*CAP
1 la_data_out[88] 0.10275
2 *537:module_status_flags_out[88] 0.000164184
3 *353:13 0.10275
4 *353:11 0.0297608
5 *353:9 0.029925
6 *353:11 *362:9 0.0756214
7 *66:13 *353:11 0.00020894
8 *296:9 *353:11 0.0190635
9 *299:15 *353:11 0.000489997
10 *304:11 *353:11 0
11 *312:9 *353:11 0.00682856
12 *314:11 *353:11 0
13 *338:16 *353:11 0.0012221
14 *338:18 *353:11 0
15 *344:11 *353:11 0.000196951
16 *344:19 *353:11 0.00725639
17 *345:11 *353:11 0.00596526
18 *352:19 *353:11 0.000648611
*RES
1 *537:module_status_flags_out[88] *353:9 7.29464 
2 *353:9 *353:11 909.036 
3 *353:11 *353:13 4.5 
4 *353:13 la_data_out[88] 2105.79 
*END

*D_NET *354 0.191995
*CONN
*P la_data_out[89] O
*I *537:module_status_flags_out[89] O *D phase_099_top_integration
*CAP
1 la_data_out[89] 0.00126456
2 *537:module_status_flags_out[89] 8.88125e-05
3 *354:13 0.00824666
4 *354:11 0.0069821
5 *354:9 0.0473146
6 *354:7 0.0474035
7 *354:13 *356:13 0.00506167
8 *194:9 *354:13 0.00295989
9 *318:55 *354:9 0.0114102
10 *348:13 *354:13 0.0297322
11 *349:13 *354:13 0.0315312
*RES
1 *537:module_status_flags_out[89] *354:7 1.60714 
2 *354:7 *354:9 1012.23 
3 *354:9 *354:11 3.41 
4 *354:11 *354:13 63.1774 
5 *354:13 la_data_out[89] 24.7225 
*END

*D_NET *355 0.418662
*CONN
*P wbs_dat_o[8] O
*P la_data_out[8] O
*I *537:module_status_flags_out[8] O *D phase_099_top_integration
*CAP
1 wbs_dat_o[8] 0.000690648
2 la_data_out[8] 0.000886979
3 *537:module_status_flags_out[8] 0.00101274
4 *355:39 0.00832214
5 *355:37 0.00774759
6 *355:31 0.0069293
7 *355:29 0.0068132
8 *355:21 0.0038112
9 *355:19 0.00297053
10 *355:17 0.0437049
11 *355:15 0.0436586
12 *355:13 0.0680594
13 *355:11 0.0680594
14 *355:9 0.0163969
15 *355:7 0.0174097
16 *355:7 *364:7 0.000196385
17 *355:9 *364:9 0.0435445
18 *355:31 *364:23 0.0193032
19 *355:39 *364:31 0.0314181
20 wbs_dat_o[10] *355:39 0.000504986
21 wbs_dat_o[11] *355:39 0.0014545
22 wbs_dat_o[12] *355:39 0.000226391
23 wbs_dat_o[13] *355:39 0.000902885
24 wbs_dat_o[14] *355:39 0.00738668
25 wbs_dat_o[17] *355:39 0.0055523
26 *134:27 *355:39 0.000549639
27 *136:43 *355:39 0.000573727
28 *275:9 *355:7 3.61244e-05
29 *278:23 *355:39 0.000371475
30 *282:37 la_data_out[8] 0
31 *285:31 *355:31 0
32 *285:31 *355:39 0.000695989
33 *287:29 *355:39 0.00186739
34 *288:31 *355:31 0.00459303
35 *299:71 *355:13 0
36 *329:15 *355:9 0
37 *333:37 *355:39 0.00287603
38 *337:9 *355:9 0.000135187
*RES
1 *537:module_status_flags_out[8] *355:7 5.77567 
2 *355:7 *355:9 536.839 
3 *355:9 *355:11 3.41 
4 *355:11 *355:13 203.419 
5 *355:13 *355:15 3.41 
6 *355:15 *355:17 896.107 
7 *355:17 *355:19 0.946429 
8 *355:19 *355:21 58.1161 
9 *355:21 la_data_out[8] 14.4821 
10 *355:21 *355:29 4.5 
11 *355:29 *355:31 200.964 
12 *355:31 *355:37 9.70464 
13 *355:37 *355:39 52.7998 
14 *355:39 wbs_dat_o[8] 16.2225 
*END

*D_NET *356 0.211798
*CONN
*P la_data_out[90] O
*I *537:module_status_flags_out[90] O *D phase_099_top_integration
*CAP
1 la_data_out[90] 0.00119702
2 *537:module_status_flags_out[90] 8.43122e-05
3 *356:13 0.0170991
4 *356:11 0.0159021
5 *356:9 0.048602
6 *356:7 0.0486864
7 la_data_out[56] *356:9 0.00208916
8 *194:9 *356:13 0
9 *205:17 *356:13 0
10 *298:33 *356:13 0
11 *309:147 *356:13 0.00387286
12 *317:129 *356:9 0
13 *332:21 *356:13 0
14 *342:15 *356:13 0.0192666
15 *349:13 *356:13 0.049937
16 *354:13 *356:13 0.00506167
*RES
1 *537:module_status_flags_out[90] *356:7 1.60714 
2 *356:7 *356:9 1013.45 
3 *356:9 *356:11 3.41 
4 *356:11 *356:13 94.7426 
5 *356:13 la_data_out[90] 23.5082 
*END

*D_NET *357 0.235339
*CONN
*P la_data_out[91] O
*I *537:module_status_flags_out[91] O *D phase_099_top_integration
*CAP
1 la_data_out[91] 0.103044
2 *537:module_status_flags_out[91] 0.000621155
3 *357:13 0.103044
4 *357:11 0.00957481
5 *357:9 0.010196
6 *52:21 *357:11 0.00287048
7 *104:13 la_data_out[91] 0
8 *298:11 *357:11 0.00445985
9 *330:13 *357:11 0.00152918
10 *341:13 *357:9 0
*RES
1 *537:module_status_flags_out[91] *357:9 13.7768 
2 *357:9 *357:11 211.643 
3 *357:11 *357:13 4.5 
4 *357:13 la_data_out[91] 2111.86 
*END

*D_NET *358 0.270407
*CONN
*P la_data_out[92] O
*I *537:module_status_flags_out[92] O *D phase_099_top_integration
*CAP
1 la_data_out[92] 0.00160674
2 *537:module_status_flags_out[92] 8.17782e-05
3 *358:13 0.0337612
4 *358:11 0.0321545
5 *358:9 0.0506857
6 *358:7 0.0507675
7 io_oeb[37] *358:13 0.00088135
8 *75:9 *358:13 0.0309979
9 *301:7 *358:7 0
10 *301:9 *358:9 0
11 *323:29 *358:13 0.036494
12 *325:26 *358:13 0.0329765
*RES
1 *537:module_status_flags_out[92] *358:7 1.60714 
2 *358:7 *358:9 1005.55 
3 *358:9 *358:11 3.41 
4 *358:11 *358:13 153.261 
5 *358:13 la_data_out[92] 31.4011 
*END

*D_NET *359 0.188343
*CONN
*P la_data_out[93] O
*I *537:module_status_flags_out[93] O *D phase_099_top_integration
*CAP
1 la_data_out[93] 0.0500759
2 *537:module_status_flags_out[93] 0.000596516
3 *359:15 0.0500759
4 *359:13 0.0163063
5 *359:11 0.0169028
6 *359:13 *361:13 0.03876
7 *304:19 *359:13 0.00466486
8 *305:11 *359:11 0
9 *314:19 *359:13 0.00454236
10 *321:26 *359:13 0.00129368
11 *327:15 *359:13 0.00512479
12 *342:7 *359:11 0
13 *342:9 *359:11 0
*RES
1 *537:module_status_flags_out[93] *359:11 14.2493 
2 *359:11 *359:13 72.3299 
3 *359:13 *359:15 3.41 
4 *359:15 la_data_out[93] 1024.31 
*END

*D_NET *360 0.169448
*CONN
*P la_data_out[94] O
*I *537:module_status_flags_out[94] O *D phase_099_top_integration
*CAP
1 la_data_out[94] 0.00523735
2 *537:module_status_flags_out[94] 0.0006357
3 *360:23 0.00523735
4 *360:21 0.0330094
5 *360:19 0.0330094
6 *360:17 0.0452868
7 *360:15 0.0459225
8 *76:9 *360:15 0.00010884
9 *311:13 *360:15 0.000785123
10 *320:35 *360:15 0.000215631
*RES
1 *537:module_status_flags_out[94] *360:15 15.8957 
2 *360:15 *360:17 927.839 
3 *360:17 *360:19 3.41 
4 *360:19 *360:21 98.5621 
5 *360:21 *360:23 3.41 
6 *360:23 la_data_out[94] 99.6339 
*END

*D_NET *361 0.182324
*CONN
*P la_data_out[95] O
*I *537:module_status_flags_out[95] O *D phase_099_top_integration
*CAP
1 la_data_out[95] 0.0500885
2 *537:module_status_flags_out[95] 0.000536134
3 *361:15 0.0500885
4 *361:13 0.0125807
5 *361:11 0.0131168
6 *321:26 *361:13 0.017153
7 *359:13 *361:13 0.03876
*RES
1 *537:module_status_flags_out[95] *361:11 13.6421 
2 *361:11 *361:13 66.2763 
3 *361:13 *361:15 3.41 
4 *361:15 la_data_out[95] 1024.92 
*END

*D_NET *362 0.393954
*CONN
*P la_data_out[96] O
*I *537:module_status_flags_out[96] O *D phase_099_top_integration
*CAP
1 la_data_out[96] 0.102697
2 *537:module_status_flags_out[96] 7.55112e-05
3 *362:11 0.102697
4 *362:9 0.0167719
5 *362:7 0.0168474
6 *62:13 *362:9 0
7 *66:13 *362:9 0.00020894
8 *312:9 *362:9 0.00370506
9 *344:11 *362:9 0.00199644
10 *345:11 *362:9 0.00654245
11 *351:17 *362:7 0
12 *351:19 *362:9 0.0654461
13 *352:19 *362:9 0.000699409
14 *352:21 *362:9 0.000645261
15 *353:11 *362:9 0.0756214
*RES
1 *537:module_status_flags_out[96] *362:7 5.625 
2 *362:7 *362:9 839.009 
3 *362:9 *362:11 4.5 
4 *362:11 la_data_out[96] 2106.09 
*END

*D_NET *363 0.394653
*CONN
*P la_data_out[97] O
*I *537:module_status_flags_out[97] O *D phase_099_top_integration
*CAP
1 la_data_out[97] 0.1022
2 *537:module_status_flags_out[97] 0.00128122
3 *363:29 0.1022
4 *363:27 0.0141024
5 *363:25 0.0145726
6 *363:19 0.00851277
7 *363:17 0.00932383
8 *537:rf_adc_i_in[3] *363:17 0.000768149
9 *537:rf_adc_i_in[4] *363:17 0
10 *30:21 *363:19 0.0640144
11 *31:9 *363:25 0.000577071
12 *61:19 *363:25 0.000155615
13 *61:21 *363:19 0.00204852
14 *62:21 *363:19 0.000700416
15 *63:21 *363:19 0.0495106
16 *64:23 *363:19 0.00200847
17 *126:11 *363:17 0.00326931
18 *126:11 *363:19 0.00111102
19 *272:11 *363:17 0.000356995
20 *277:11 *363:19 0.000278735
21 *289:11 *363:19 0.000518255
22 *291:11 *363:19 0.00822606
23 *317:17 *363:17 0.00187174
24 *317:31 *363:25 9.36141e-05
25 *320:15 *363:25 0.00137115
26 *329:11 *363:19 0
27 *330:13 *363:19 0.00147049
28 *332:13 *363:19 0.00311972
29 *341:13 *363:19 0.000989521
*RES
1 *537:module_status_flags_out[97] *363:17 26.8135 
2 *363:17 *363:19 607.161 
3 *363:19 *363:25 26.7321 
4 *363:25 *363:27 263.804 
5 *363:27 *363:29 4.5 
6 *363:29 la_data_out[97] 2096.07 
*END

*D_NET *364 0.444716
*CONN
*P la_data_out[9] O
*P wbs_dat_o[9] O
*I *537:module_status_flags_out[9] O *D phase_099_top_integration
*CAP
1 la_data_out[9] 0.00086374
2 wbs_dat_o[9] 0.00072759
3 *537:module_status_flags_out[9] 0.000966972
4 *364:31 0.0112946
5 *364:29 0.0106264
6 *364:23 0.003777
7 *364:21 0.00465659
8 *364:17 0.0457911
9 *364:15 0.045716
10 *364:13 0.0669484
11 *364:11 0.0669484
12 *364:9 0.00831991
13 *364:7 0.00928689
14 la_data_out[81] *364:9 0
15 *105:5 *364:17 0
16 *131:7 *364:7 0
17 *131:9 *364:9 0.00566845
18 *282:7 *364:7 9.29487e-05
19 *283:23 *364:31 0.00172202
20 *285:31 *364:23 0
21 *286:51 *364:31 0.00186063
22 *287:29 *364:31 0.000566525
23 *288:31 *364:23 0.00408978
24 *288:31 *364:31 0.00372612
25 *289:27 *364:21 0.000216439
26 *289:27 *364:23 0.0157349
27 *290:33 *364:31 0.000249117
28 *291:35 *364:23 0.000368223
29 *299:71 *364:13 0
30 *329:15 *364:9 0
31 *337:9 *364:9 0.040035
32 *355:7 *364:7 0.000196385
33 *355:9 *364:9 0.0435445
34 *355:31 *364:23 0.0193032
35 *355:39 *364:31 0.0314181
*RES
1 *537:module_status_flags_out[9] *364:7 5.7036 
2 *364:7 *364:9 552.018 
3 *364:9 *364:11 3.41 
4 *364:11 *364:13 200.104 
5 *364:13 *364:15 3.41 
6 *364:15 *364:17 936.188 
7 *364:17 *364:21 6.67857 
8 *364:21 *364:23 198.5 
9 *364:23 *364:29 8.79393 
10 *364:29 *364:31 53.1601 
11 *364:31 wbs_dat_o[9] 16.8296 
12 *364:21 la_data_out[9] 18.6786 
*END

*D_NET *455 0.325876
*CONN
*P user_clock2 I
*I *537:clk_2p4g I *D phase_099_top_integration
*CAP
1 user_clock2 0.000701044
2 *537:clk_2p4g 0.00071169
3 *455:27 0.00775143
4 *455:17 0.0791431
5 *455:15 0.0721034
6 *455:13 0.0490298
7 *455:11 0.0490298
8 *455:9 0.0113755
9 *455:7 0.0120765
10 *537:rf_adc_q_in[10] *537:clk_2p4g 0
11 *537:rf_adc_q_in[11] *455:27 0.000905329
12 *537:rf_adc_q_in[15] *455:27 0.000120399
13 *273:13 *455:27 0
14 *285:21 *455:17 0.0105641
15 *285:21 *455:27 0.00174985
16 *288:17 *455:27 0
17 *289:21 *455:27 0.0217341
18 *294:23 *455:9 0.00618882
19 *295:53 *455:9 0.00263232
20 *299:21 *537:clk_2p4g 5.87659e-05
21 *304:19 *455:17 0
22 *314:19 *455:17 0
*RES
1 user_clock2 *455:7 18.375 
2 *455:7 *455:9 250.661 
3 *455:9 *455:11 4.5 
4 *455:11 *455:13 1007.68 
5 *455:13 *455:15 4.5 
6 *455:15 *455:17 1364.52 
7 *455:17 *455:27 49.0508 
8 *455:27 *537:clk_2p4g 12.75 
*END

*D_NET *464 0.221756
*CONN
*P wb_clk_i I
*I *537:clk_dsp I *D phase_099_top_integration
*CAP
1 wb_clk_i 0.00157417
2 *537:clk_dsp 8.02418e-05
3 *464:13 0.0473876
4 *464:11 0.0473074
5 *464:9 0.0589215
6 *464:7 0.0604957
7 io_oeb[37] *464:9 0
8 *86:5 *464:13 0.00351933
9 *90:11 *464:9 0.000470992
10 *134:13 *464:9 0
11 *308:79 *464:13 0.00199947
*RES
1 wb_clk_i *464:7 35.6511 
2 *464:7 *464:9 172.214 
3 *464:9 *464:11 3.41 
4 *464:11 *464:13 1001.3 
5 *464:13 *537:clk_dsp 1.60714 
*END

*D_NET *466 0.00138833
*CONN
*P wbs_ack_o O
*P wbs_stb_i I
*CAP
1 wbs_ack_o 0.000694166
2 wbs_stb_i 0.000694166
*RES
1 wbs_stb_i wbs_ack_o 22.1786 
*END
