*SPEF "ieee 1481-1999"
*DESIGN "user_project_wrapper"
*DATE "11:11:11 Fri 11 11, 1111"
*VENDOR "OpenRCX"
*PROGRAM "Parallel Extraction"
*VERSION "1.0"
*DESIGN_FLOW "NAME_SCOPE LOCAL" "PIN_CAP NONE"
*DIVIDER /
*DELIMITER :
*BUS_DELIMITER []
*T_UNIT 1 NS
*C_UNIT 1 PF
*R_UNIT 1 OHM
*L_UNIT 1 HENRY

*NAME_MAP
*1 analog_io[0]
*2 analog_io[10]
*3 analog_io[11]
*4 analog_io[12]
*5 analog_io[13]
*6 analog_io[14]
*7 analog_io[15]
*8 analog_io[16]
*9 analog_io[17]
*10 analog_io[18]
*11 analog_io[19]
*12 analog_io[1]
*13 analog_io[20]
*14 analog_io[21]
*15 analog_io[22]
*16 analog_io[23]
*17 analog_io[24]
*18 analog_io[25]
*19 analog_io[26]
*20 analog_io[27]
*21 analog_io[28]
*22 analog_io[2]
*23 analog_io[3]
*24 analog_io[4]
*25 analog_io[5]
*26 analog_io[6]
*27 analog_io[7]
*28 analog_io[8]
*29 analog_io[9]
*30 io_in[0]
*31 io_in[10]
*32 io_in[11]
*33 io_in[12]
*34 io_in[13]
*35 io_in[14]
*36 io_in[15]
*37 io_in[16]
*38 io_in[17]
*39 io_in[18]
*40 io_in[19]
*41 io_in[1]
*42 io_in[20]
*43 io_in[21]
*44 io_in[22]
*45 io_in[23]
*46 io_in[24]
*47 io_in[25]
*48 io_in[26]
*49 io_in[27]
*50 io_in[28]
*51 io_in[29]
*52 io_in[2]
*53 io_in[30]
*54 io_in[31]
*55 io_in[32]
*56 io_in[33]
*57 io_in[34]
*58 io_in[35]
*59 io_in[36]
*60 io_in[37]
*61 io_in[3]
*62 io_in[4]
*63 io_in[5]
*64 io_in[6]
*65 io_in[7]
*66 io_in[8]
*67 io_in[9]
*68 la_oenb[0]
*69 la_oenb[10]
*70 la_oenb[11]
*71 la_oenb[12]
*72 la_oenb[13]
*73 la_oenb[14]
*74 la_oenb[15]
*75 la_oenb[16]
*76 la_oenb[17]
*77 la_oenb[18]
*78 la_oenb[19]
*79 la_oenb[1]
*80 la_oenb[20]
*81 la_oenb[21]
*82 la_oenb[22]
*83 la_oenb[23]
*84 la_oenb[24]
*85 la_oenb[25]
*86 la_oenb[26]
*87 la_oenb[27]
*88 la_oenb[28]
*89 la_oenb[29]
*90 la_oenb[2]
*91 la_oenb[30]
*92 la_oenb[31]
*93 la_oenb[32]
*94 la_oenb[33]
*95 la_oenb[34]
*96 la_oenb[35]
*97 la_oenb[36]
*98 la_oenb[37]
*99 la_oenb[3]
*100 la_oenb[4]
*101 la_oenb[5]
*102 la_oenb[6]
*103 la_oenb[7]
*104 la_oenb[8]
*105 la_oenb[9]
*106 io_out[0]
*107 io_out[10]
*108 io_out[11]
*109 io_out[12]
*110 io_out[13]
*111 io_out[14]
*112 io_out[15]
*113 io_out[16]
*114 io_out[17]
*115 io_out[18]
*116 io_out[19]
*117 io_out[1]
*118 io_out[20]
*119 io_out[21]
*120 io_out[22]
*121 io_out[23]
*122 io_out[24]
*123 io_out[25]
*124 io_out[26]
*125 io_out[27]
*126 io_out[28]
*127 io_out[29]
*128 io_out[2]
*129 io_out[30]
*130 io_out[31]
*131 chip_ready_out
*132 io_out[33]
*133 io_out[34]
*134 io_out[35]
*135 io_out[36]
*136 io_out[37]
*137 io_out[3]
*138 io_out[4]
*139 io_out[5]
*140 io_out[6]
*141 io_out[7]
*142 io_out[8]
*143 io_out[9]
*144 la_data_in[0]
*145 la_data_in[100]
*146 la_data_in[101]
*147 la_data_in[102]
*148 la_data_in[103]
*149 la_data_in[104]
*150 la_data_in[105]
*151 la_data_in[106]
*152 la_data_in[107]
*153 la_data_in[108]
*154 la_data_in[109]
*155 la_data_in[10]
*156 la_data_in[110]
*157 la_data_in[111]
*158 la_data_in[112]
*159 la_data_in[113]
*160 la_data_in[114]
*161 la_data_in[115]
*162 la_data_in[116]
*163 la_data_in[117]
*164 la_data_in[118]
*165 la_data_in[119]
*166 la_data_in[11]
*167 la_data_in[120]
*168 la_data_in[121]
*169 la_data_in[122]
*170 la_data_in[123]
*171 la_data_in[124]
*172 la_data_in[125]
*173 la_data_in[126]
*174 la_data_in[127]
*175 la_data_in[12]
*176 la_data_in[13]
*177 la_data_in[14]
*178 la_data_in[15]
*179 la_data_in[16]
*180 la_data_in[17]
*181 la_data_in[18]
*182 la_data_in[19]
*183 la_data_in[1]
*184 la_data_in[20]
*185 la_data_in[21]
*186 la_data_in[22]
*187 la_data_in[23]
*188 la_data_in[24]
*189 la_data_in[25]
*190 la_data_in[26]
*191 la_data_in[27]
*192 la_data_in[28]
*193 la_data_in[29]
*194 la_data_in[2]
*195 la_data_in[30]
*196 la_data_in[31]
*197 la_data_in[32]
*198 la_data_in[33]
*199 la_data_in[34]
*200 la_data_in[35]
*201 la_data_in[36]
*202 la_data_in[37]
*203 la_data_in[38]
*204 la_data_in[39]
*205 la_data_in[3]
*206 la_data_in[40]
*207 la_data_in[41]
*208 la_data_in[42]
*209 la_data_in[43]
*210 la_data_in[44]
*211 la_data_in[45]
*212 la_data_in[46]
*213 la_data_in[47]
*214 la_data_in[48]
*215 la_data_in[49]
*216 la_data_in[4]
*217 la_data_in[50]
*218 la_data_in[51]
*219 la_data_in[52]
*220 la_data_in[53]
*221 la_data_in[54]
*222 la_data_in[55]
*223 la_data_in[56]
*224 la_data_in[57]
*225 la_data_in[58]
*226 la_data_in[59]
*227 la_data_in[5]
*228 la_data_in[60]
*229 la_data_in[61]
*230 la_data_in[62]
*231 la_data_in[63]
*232 la_data_in[64]
*233 la_data_in[65]
*234 la_data_in[66]
*235 la_data_in[67]
*236 la_data_in[68]
*237 la_data_in[69]
*238 la_data_in[6]
*239 la_data_in[70]
*240 la_data_in[71]
*241 la_data_in[72]
*242 la_data_in[73]
*243 la_data_in[74]
*244 la_data_in[75]
*245 la_data_in[76]
*246 la_data_in[77]
*247 la_data_in[78]
*248 la_data_in[79]
*249 la_data_in[7]
*250 la_data_in[80]
*251 la_data_in[81]
*252 la_data_in[82]
*253 la_data_in[83]
*254 la_data_in[84]
*255 la_data_in[85]
*256 la_data_in[86]
*257 la_data_in[87]
*258 la_data_in[88]
*259 la_data_in[89]
*260 la_data_in[8]
*261 la_data_in[90]
*262 la_data_in[91]
*263 la_data_in[92]
*264 la_data_in[93]
*265 la_data_in[94]
*266 la_data_in[95]
*267 la_data_in[96]
*268 la_data_in[97]
*269 la_data_in[98]
*270 la_data_in[99]
*271 la_data_in[9]
*272 la_data_out[10]
*273 la_data_out[11]
*274 la_data_out[12]
*275 la_data_out[13]
*276 la_data_out[14]
*277 la_data_out[15]
*278 la_data_out[16]
*279 la_data_out[17]
*280 la_data_out[18]
*281 la_data_out[19]
*282 la_data_out[20]
*283 la_data_out[21]
*284 la_data_out[22]
*285 la_data_out[23]
*286 la_data_out[24]
*287 la_data_out[25]
*288 la_data_out[26]
*289 la_data_out[27]
*290 la_data_out[28]
*291 la_data_out[29]
*292 la_data_out[30]
*293 la_data_out[31]
*294 la_data_out[32]
*295 la_data_out[33]
*296 la_data_out[34]
*297 la_data_out[35]
*298 la_data_out[36]
*299 la_data_out[37]
*300 la_data_out[38]
*301 la_data_out[39]
*302 la_data_out[40]
*303 la_data_out[41]
*304 la_data_out[42]
*305 la_data_out[43]
*306 la_data_out[44]
*307 la_data_out[45]
*308 la_data_out[46]
*309 la_data_out[47]
*310 la_data_out[48]
*311 la_data_out[49]
*312 la_data_out[50]
*313 la_data_out[51]
*314 la_data_out[52]
*315 la_data_out[53]
*316 la_data_out[54]
*317 la_data_out[55]
*318 la_data_out[56]
*319 la_data_out[57]
*320 la_data_out[58]
*321 la_data_out[59]
*322 la_data_out[5]
*323 la_data_out[60]
*324 la_data_out[61]
*325 la_data_out[62]
*326 la_data_out[63]
*327 la_data_out[64]
*328 la_data_out[65]
*329 la_data_out[66]
*330 la_data_out[67]
*331 la_data_out[68]
*332 la_data_out[69]
*333 la_data_out[6]
*334 la_data_out[70]
*335 la_data_out[71]
*336 la_data_out[72]
*337 la_data_out[73]
*338 la_data_out[74]
*339 la_data_out[75]
*340 la_data_out[76]
*341 la_data_out[77]
*342 la_data_out[78]
*343 la_data_out[79]
*344 la_data_out[7]
*345 la_data_out[80]
*346 la_data_out[81]
*347 la_data_out[82]
*348 la_data_out[83]
*349 la_data_out[84]
*350 la_data_out[85]
*351 la_data_out[86]
*352 la_data_out[87]
*353 la_data_out[88]
*354 la_data_out[89]
*355 la_data_out[8]
*356 la_data_out[90]
*357 la_data_out[91]
*358 la_data_out[92]
*359 la_data_out[93]
*360 la_data_out[94]
*361 la_data_out[95]
*362 la_data_out[96]
*363 la_data_out[97]
*364 la_data_out[9]
*365 la_oenb[100]
*366 la_oenb[101]
*367 la_oenb[102]
*368 la_oenb[103]
*369 la_oenb[104]
*370 la_oenb[105]
*371 la_oenb[106]
*372 la_oenb[107]
*373 la_oenb[108]
*374 la_oenb[109]
*375 la_oenb[110]
*376 la_oenb[111]
*377 la_oenb[112]
*378 la_oenb[113]
*379 la_oenb[114]
*380 la_oenb[115]
*381 la_oenb[116]
*382 la_oenb[117]
*383 la_oenb[118]
*384 la_oenb[119]
*385 la_oenb[120]
*386 la_oenb[121]
*387 la_oenb[122]
*388 la_oenb[123]
*389 la_oenb[124]
*390 la_oenb[125]
*391 la_oenb[126]
*392 la_oenb[127]
*393 la_oenb[38]
*394 la_oenb[39]
*395 la_oenb[40]
*396 la_oenb[41]
*397 la_oenb[42]
*398 la_oenb[43]
*399 la_oenb[44]
*400 la_oenb[45]
*401 la_oenb[46]
*402 la_oenb[47]
*403 la_oenb[48]
*404 la_oenb[49]
*405 la_oenb[50]
*406 la_oenb[51]
*407 la_oenb[52]
*408 la_oenb[53]
*409 la_oenb[54]
*410 la_oenb[55]
*411 la_oenb[56]
*412 la_oenb[57]
*413 la_oenb[58]
*414 la_oenb[59]
*415 la_oenb[60]
*416 la_oenb[61]
*417 la_oenb[62]
*418 la_oenb[63]
*419 la_oenb[64]
*420 la_oenb[65]
*421 la_oenb[66]
*422 la_oenb[67]
*423 la_oenb[68]
*424 la_oenb[69]
*425 la_oenb[70]
*426 la_oenb[71]
*427 la_oenb[72]
*428 la_oenb[73]
*429 la_oenb[74]
*430 la_oenb[75]
*431 la_oenb[76]
*432 la_oenb[77]
*433 la_oenb[78]
*434 la_oenb[79]
*435 la_oenb[80]
*436 la_oenb[81]
*437 la_oenb[82]
*438 la_oenb[83]
*439 la_oenb[84]
*440 la_oenb[85]
*441 la_oenb[86]
*442 la_oenb[87]
*443 la_oenb[88]
*444 la_oenb[89]
*445 la_oenb[90]
*446 la_oenb[91]
*447 la_oenb[92]
*448 la_oenb[93]
*449 la_oenb[94]
*450 la_oenb[95]
*451 la_oenb[96]
*452 la_oenb[97]
*453 la_oenb[98]
*454 la_oenb[99]
*455 user_clock2
*464 wb_clk_i
*465 wb_rst_i
*466 wbs_stb_i
*467 wbs_adr_i[0]
*468 wbs_adr_i[10]
*469 wbs_adr_i[11]
*470 wbs_adr_i[12]
*471 wbs_adr_i[13]
*472 wbs_adr_i[14]
*473 wbs_adr_i[15]
*474 wbs_adr_i[16]
*475 wbs_adr_i[17]
*476 wbs_adr_i[18]
*477 wbs_adr_i[19]
*478 wbs_adr_i[1]
*479 wbs_adr_i[20]
*480 wbs_adr_i[21]
*481 wbs_adr_i[22]
*482 wbs_adr_i[23]
*483 wbs_adr_i[24]
*484 wbs_adr_i[25]
*485 wbs_adr_i[26]
*486 wbs_adr_i[27]
*487 wbs_adr_i[28]
*488 wbs_adr_i[29]
*489 wbs_adr_i[2]
*490 wbs_adr_i[30]
*491 wbs_adr_i[31]
*492 wbs_adr_i[3]
*493 wbs_adr_i[4]
*494 wbs_adr_i[5]
*495 wbs_adr_i[6]
*496 wbs_adr_i[7]
*497 wbs_adr_i[8]
*498 wbs_adr_i[9]
*499 wbs_cyc_i
*500 wbs_dat_i[0]
*501 wbs_dat_i[10]
*502 wbs_dat_i[11]
*503 wbs_dat_i[12]
*504 wbs_dat_i[13]
*505 wbs_dat_i[14]
*506 wbs_dat_i[15]
*507 wbs_dat_i[16]
*508 wbs_dat_i[17]
*509 wbs_dat_i[18]
*510 wbs_dat_i[19]
*511 wbs_dat_i[1]
*512 wbs_dat_i[20]
*513 wbs_dat_i[21]
*514 wbs_dat_i[22]
*515 wbs_dat_i[23]
*516 wbs_dat_i[24]
*517 wbs_dat_i[25]
*518 wbs_dat_i[26]
*519 wbs_dat_i[27]
*520 wbs_dat_i[28]
*521 wbs_dat_i[29]
*522 wbs_dat_i[2]
*523 wbs_dat_i[30]
*524 wbs_dat_i[31]
*525 wbs_dat_i[3]
*526 wbs_dat_i[4]
*527 wbs_dat_i[5]
*528 wbs_dat_i[6]
*529 wbs_dat_i[7]
*530 wbs_dat_i[8]
*531 wbs_dat_i[9]
*532 wbs_sel_i[0]
*533 wbs_sel_i[1]
*534 wbs_sel_i[2]
*535 wbs_sel_i[3]
*536 wbs_we_i
*537 mprj

*PORTS
analog_io[0] I
analog_io[10] I
analog_io[11] I
analog_io[12] I
analog_io[13] I
analog_io[14] I
analog_io[15] I
analog_io[16] I
analog_io[17] I
analog_io[18] I
analog_io[19] I
analog_io[1] I
analog_io[20] I
analog_io[21] I
analog_io[22] I
analog_io[23] I
analog_io[24] I
analog_io[25] I
analog_io[26] I
analog_io[27] I
analog_io[28] I
analog_io[2] I
analog_io[3] I
analog_io[4] I
analog_io[5] I
analog_io[6] I
analog_io[7] I
analog_io[8] I
analog_io[9] I
io_in[0] I
io_in[10] I
io_in[11] I
io_in[12] I
io_in[13] I
io_in[14] I
io_in[15] I
io_in[16] I
io_in[17] I
io_in[18] I
io_in[19] I
io_in[1] I
io_in[20] I
io_in[21] I
io_in[22] I
io_in[23] I
io_in[24] I
io_in[25] I
io_in[26] I
io_in[27] I
io_in[28] I
io_in[29] I
io_in[2] I
io_in[30] I
io_in[31] I
io_in[32] I
io_in[33] I
io_in[34] I
io_in[35] I
io_in[36] I
io_in[37] I
io_in[3] I
io_in[4] I
io_in[5] I
io_in[6] I
io_in[7] I
io_in[8] I
io_in[9] I
io_oeb[0] O
io_oeb[10] O
io_oeb[11] O
io_oeb[12] O
io_oeb[13] O
io_oeb[14] O
io_oeb[15] O
io_oeb[16] O
io_oeb[17] O
io_oeb[18] O
io_oeb[19] O
io_oeb[1] O
io_oeb[20] O
io_oeb[21] O
io_oeb[22] O
io_oeb[23] O
io_oeb[24] O
io_oeb[25] O
io_oeb[26] O
io_oeb[27] O
io_oeb[28] O
io_oeb[29] O
io_oeb[2] O
io_oeb[30] O
io_oeb[31] O
io_oeb[32] O
io_oeb[33] O
io_oeb[34] O
io_oeb[35] O
io_oeb[36] O
io_oeb[37] O
io_oeb[3] O
io_oeb[4] O
io_oeb[5] O
io_oeb[6] O
io_oeb[7] O
io_oeb[8] O
io_oeb[9] O
io_out[0] O
io_out[10] O
io_out[11] O
io_out[12] O
io_out[13] O
io_out[14] O
io_out[15] O
io_out[16] O
io_out[17] O
io_out[18] O
io_out[19] O
io_out[1] O
io_out[20] O
io_out[21] O
io_out[22] O
io_out[23] O
io_out[24] O
io_out[25] O
io_out[26] O
io_out[27] O
io_out[28] O
io_out[29] O
io_out[2] O
io_out[30] O
io_out[31] O
io_out[32] O
io_out[33] O
io_out[34] O
io_out[35] O
io_out[36] O
io_out[37] O
io_out[3] O
io_out[4] O
io_out[5] O
io_out[6] O
io_out[7] O
io_out[8] O
io_out[9] O
la_data_in[0] I
la_data_in[100] I
la_data_in[101] I
la_data_in[102] I
la_data_in[103] I
la_data_in[104] I
la_data_in[105] I
la_data_in[106] I
la_data_in[107] I
la_data_in[108] I
la_data_in[109] I
la_data_in[10] I
la_data_in[110] I
la_data_in[111] I
la_data_in[112] I
la_data_in[113] I
la_data_in[114] I
la_data_in[115] I
la_data_in[116] I
la_data_in[117] I
la_data_in[118] I
la_data_in[119] I
la_data_in[11] I
la_data_in[120] I
la_data_in[121] I
la_data_in[122] I
la_data_in[123] I
la_data_in[124] I
la_data_in[125] I
la_data_in[126] I
la_data_in[127] I
la_data_in[12] I
la_data_in[13] I
la_data_in[14] I
la_data_in[15] I
la_data_in[16] I
la_data_in[17] I
la_data_in[18] I
la_data_in[19] I
la_data_in[1] I
la_data_in[20] I
la_data_in[21] I
la_data_in[22] I
la_data_in[23] I
la_data_in[24] I
la_data_in[25] I
la_data_in[26] I
la_data_in[27] I
la_data_in[28] I
la_data_in[29] I
la_data_in[2] I
la_data_in[30] I
la_data_in[31] I
la_data_in[32] I
la_data_in[33] I
la_data_in[34] I
la_data_in[35] I
la_data_in[36] I
la_data_in[37] I
la_data_in[38] I
la_data_in[39] I
la_data_in[3] I
la_data_in[40] I
la_data_in[41] I
la_data_in[42] I
la_data_in[43] I
la_data_in[44] I
la_data_in[45] I
la_data_in[46] I
la_data_in[47] I
la_data_in[48] I
la_data_in[49] I
la_data_in[4] I
la_data_in[50] I
la_data_in[51] I
la_data_in[52] I
la_data_in[53] I
la_data_in[54] I
la_data_in[55] I
la_data_in[56] I
la_data_in[57] I
la_data_in[58] I
la_data_in[59] I
la_data_in[5] I
la_data_in[60] I
la_data_in[61] I
la_data_in[62] I
la_data_in[63] I
la_data_in[64] I
la_data_in[65] I
la_data_in[66] I
la_data_in[67] I
la_data_in[68] I
la_data_in[69] I
la_data_in[6] I
la_data_in[70] I
la_data_in[71] I
la_data_in[72] I
la_data_in[73] I
la_data_in[74] I
la_data_in[75] I
la_data_in[76] I
la_data_in[77] I
la_data_in[78] I
la_data_in[79] I
la_data_in[7] I
la_data_in[80] I
la_data_in[81] I
la_data_in[82] I
la_data_in[83] I
la_data_in[84] I
la_data_in[85] I
la_data_in[86] I
la_data_in[87] I
la_data_in[88] I
la_data_in[89] I
la_data_in[8] I
la_data_in[90] I
la_data_in[91] I
la_data_in[92] I
la_data_in[93] I
la_data_in[94] I
la_data_in[95] I
la_data_in[96] I
la_data_in[97] I
la_data_in[98] I
la_data_in[99] I
la_data_in[9] I
la_data_out[0] O
la_data_out[100] O
la_data_out[101] O
la_data_out[102] O
la_data_out[103] O
la_data_out[104] O
la_data_out[105] O
la_data_out[106] O
la_data_out[107] O
la_data_out[108] O
la_data_out[109] O
la_data_out[10] O
la_data_out[110] O
la_data_out[111] O
la_data_out[112] O
la_data_out[113] O
la_data_out[114] O
la_data_out[115] O
la_data_out[116] O
la_data_out[117] O
la_data_out[118] O
la_data_out[119] O
la_data_out[11] O
la_data_out[120] O
la_data_out[121] O
la_data_out[122] O
la_data_out[123] O
la_data_out[124] O
la_data_out[125] O
la_data_out[126] O
la_data_out[127] O
la_data_out[12] O
la_data_out[13] O
la_data_out[14] O
la_data_out[15] O
la_data_out[16] O
la_data_out[17] O
la_data_out[18] O
la_data_out[19] O
la_data_out[1] O
la_data_out[20] O
la_data_out[21] O
la_data_out[22] O
la_data_out[23] O
la_data_out[24] O
la_data_out[25] O
la_data_out[26] O
la_data_out[27] O
la_data_out[28] O
la_data_out[29] O
la_data_out[2] O
la_data_out[30] O
la_data_out[31] O
la_data_out[32] O
la_data_out[33] O
la_data_out[34] O
la_data_out[35] O
la_data_out[36] O
la_data_out[37] O
la_data_out[38] O
la_data_out[39] O
la_data_out[3] O
la_data_out[40] O
la_data_out[41] O
la_data_out[42] O
la_data_out[43] O
la_data_out[44] O
la_data_out[45] O
la_data_out[46] O
la_data_out[47] O
la_data_out[48] O
la_data_out[49] O
la_data_out[4] O
la_data_out[50] O
la_data_out[51] O
la_data_out[52] O
la_data_out[53] O
la_data_out[54] O
la_data_out[55] O
la_data_out[56] O
la_data_out[57] O
la_data_out[58] O
la_data_out[59] O
la_data_out[5] O
la_data_out[60] O
la_data_out[61] O
la_data_out[62] O
la_data_out[63] O
la_data_out[64] O
la_data_out[65] O
la_data_out[66] O
la_data_out[67] O
la_data_out[68] O
la_data_out[69] O
la_data_out[6] O
la_data_out[70] O
la_data_out[71] O
la_data_out[72] O
la_data_out[73] O
la_data_out[74] O
la_data_out[75] O
la_data_out[76] O
la_data_out[77] O
la_data_out[78] O
la_data_out[79] O
la_data_out[7] O
la_data_out[80] O
la_data_out[81] O
la_data_out[82] O
la_data_out[83] O
la_data_out[84] O
la_data_out[85] O
la_data_out[86] O
la_data_out[87] O
la_data_out[88] O
la_data_out[89] O
la_data_out[8] O
la_data_out[90] O
la_data_out[91] O
la_data_out[92] O
la_data_out[93] O
la_data_out[94] O
la_data_out[95] O
la_data_out[96] O
la_data_out[97] O
la_data_out[98] O
la_data_out[99] O
la_data_out[9] O
la_oenb[0] I
la_oenb[100] I
la_oenb[101] I
la_oenb[102] I
la_oenb[103] I
la_oenb[104] I
la_oenb[105] I
la_oenb[106] I
la_oenb[107] I
la_oenb[108] I
la_oenb[109] I
la_oenb[10] I
la_oenb[110] I
la_oenb[111] I
la_oenb[112] I
la_oenb[113] I
la_oenb[114] I
la_oenb[115] I
la_oenb[116] I
la_oenb[117] I
la_oenb[118] I
la_oenb[119] I
la_oenb[11] I
la_oenb[120] I
la_oenb[121] I
la_oenb[122] I
la_oenb[123] I
la_oenb[124] I
la_oenb[125] I
la_oenb[126] I
la_oenb[127] I
la_oenb[12] I
la_oenb[13] I
la_oenb[14] I
la_oenb[15] I
la_oenb[16] I
la_oenb[17] I
la_oenb[18] I
la_oenb[19] I
la_oenb[1] I
la_oenb[20] I
la_oenb[21] I
la_oenb[22] I
la_oenb[23] I
la_oenb[24] I
la_oenb[25] I
la_oenb[26] I
la_oenb[27] I
la_oenb[28] I
la_oenb[29] I
la_oenb[2] I
la_oenb[30] I
la_oenb[31] I
la_oenb[32] I
la_oenb[33] I
la_oenb[34] I
la_oenb[35] I
la_oenb[36] I
la_oenb[37] I
la_oenb[38] I
la_oenb[39] I
la_oenb[3] I
la_oenb[40] I
la_oenb[41] I
la_oenb[42] I
la_oenb[43] I
la_oenb[44] I
la_oenb[45] I
la_oenb[46] I
la_oenb[47] I
la_oenb[48] I
la_oenb[49] I
la_oenb[4] I
la_oenb[50] I
la_oenb[51] I
la_oenb[52] I
la_oenb[53] I
la_oenb[54] I
la_oenb[55] I
la_oenb[56] I
la_oenb[57] I
la_oenb[58] I
la_oenb[59] I
la_oenb[5] I
la_oenb[60] I
la_oenb[61] I
la_oenb[62] I
la_oenb[63] I
la_oenb[64] I
la_oenb[65] I
la_oenb[66] I
la_oenb[67] I
la_oenb[68] I
la_oenb[69] I
la_oenb[6] I
la_oenb[70] I
la_oenb[71] I
la_oenb[72] I
la_oenb[73] I
la_oenb[74] I
la_oenb[75] I
la_oenb[76] I
la_oenb[77] I
la_oenb[78] I
la_oenb[79] I
la_oenb[7] I
la_oenb[80] I
la_oenb[81] I
la_oenb[82] I
la_oenb[83] I
la_oenb[84] I
la_oenb[85] I
la_oenb[86] I
la_oenb[87] I
la_oenb[88] I
la_oenb[89] I
la_oenb[8] I
la_oenb[90] I
la_oenb[91] I
la_oenb[92] I
la_oenb[93] I
la_oenb[94] I
la_oenb[95] I
la_oenb[96] I
la_oenb[97] I
la_oenb[98] I
la_oenb[99] I
la_oenb[9] I
user_clock2 I
user_irq[0] O
user_irq[1] O
user_irq[2] O
wb_clk_i I
wb_rst_i I
wbs_ack_o O
wbs_adr_i[0] I
wbs_adr_i[10] I
wbs_adr_i[11] I
wbs_adr_i[12] I
wbs_adr_i[13] I
wbs_adr_i[14] I
wbs_adr_i[15] I
wbs_adr_i[16] I
wbs_adr_i[17] I
wbs_adr_i[18] I
wbs_adr_i[19] I
wbs_adr_i[1] I
wbs_adr_i[20] I
wbs_adr_i[21] I
wbs_adr_i[22] I
wbs_adr_i[23] I
wbs_adr_i[24] I
wbs_adr_i[25] I
wbs_adr_i[26] I
wbs_adr_i[27] I
wbs_adr_i[28] I
wbs_adr_i[29] I
wbs_adr_i[2] I
wbs_adr_i[30] I
wbs_adr_i[31] I
wbs_adr_i[3] I
wbs_adr_i[4] I
wbs_adr_i[5] I
wbs_adr_i[6] I
wbs_adr_i[7] I
wbs_adr_i[8] I
wbs_adr_i[9] I
wbs_cyc_i I
wbs_dat_i[0] I
wbs_dat_i[10] I
wbs_dat_i[11] I
wbs_dat_i[12] I
wbs_dat_i[13] I
wbs_dat_i[14] I
wbs_dat_i[15] I
wbs_dat_i[16] I
wbs_dat_i[17] I
wbs_dat_i[18] I
wbs_dat_i[19] I
wbs_dat_i[1] I
wbs_dat_i[20] I
wbs_dat_i[21] I
wbs_dat_i[22] I
wbs_dat_i[23] I
wbs_dat_i[24] I
wbs_dat_i[25] I
wbs_dat_i[26] I
wbs_dat_i[27] I
wbs_dat_i[28] I
wbs_dat_i[29] I
wbs_dat_i[2] I
wbs_dat_i[30] I
wbs_dat_i[31] I
wbs_dat_i[3] I
wbs_dat_i[4] I
wbs_dat_i[5] I
wbs_dat_i[6] I
wbs_dat_i[7] I
wbs_dat_i[8] I
wbs_dat_i[9] I
wbs_dat_o[0] O
wbs_dat_o[10] O
wbs_dat_o[11] O
wbs_dat_o[12] O
wbs_dat_o[13] O
wbs_dat_o[14] O
wbs_dat_o[15] O
wbs_dat_o[16] O
wbs_dat_o[17] O
wbs_dat_o[18] O
wbs_dat_o[19] O
wbs_dat_o[1] O
wbs_dat_o[20] O
wbs_dat_o[21] O
wbs_dat_o[22] O
wbs_dat_o[23] O
wbs_dat_o[24] O
wbs_dat_o[25] O
wbs_dat_o[26] O
wbs_dat_o[27] O
wbs_dat_o[28] O
wbs_dat_o[29] O
wbs_dat_o[2] O
wbs_dat_o[30] O
wbs_dat_o[31] O
wbs_dat_o[3] O
wbs_dat_o[4] O
wbs_dat_o[5] O
wbs_dat_o[6] O
wbs_dat_o[7] O
wbs_dat_o[8] O
wbs_dat_o[9] O
wbs_sel_i[0] I
wbs_sel_i[1] I
wbs_sel_i[2] I
wbs_sel_i[3] I
wbs_stb_i I
wbs_we_i I

*D_NET *30 0.445358
*CONN
*P io_in[0] I
*I *537:rf_adc_i_in[0] I *D phase_099_top_integration
*CAP
1 io_in[0] 0.00100958
2 *537:rf_adc_i_in[0] 0.000639509
3 *30:21 0.0103962
4 *30:19 0.00975668
5 *30:17 0.104626
6 *30:15 0.104626
7 *30:13 0.0397337
8 *30:11 0.0407433
9 *537:rf_adc_i_in[0] *537:rf_adc_i_in[4] 0
10 *537:rf_adc_i_in[0] *308:9 0
11 *30:17 la_data_out[82] 0
12 *30:21 *41:21 0.00900945
13 *30:21 *63:21 0.00104865
14 *30:21 *126:11 0.0039473
15 *30:21 *277:11 0.0192681
16 *30:21 *307:11 0.0204745
17 *30:21 *322:11 0.0113412
18 *30:21 *330:11 0.0048654
19 *30:21 *363:19 0.0638724
*RES
1 io_in[0] *30:11 30.7263 
2 *30:11 *30:13 839.612 
3 *30:13 *30:15 15 
4 *30:15 *30:17 2414.08 
5 *30:17 *30:19 15 
6 *30:19 *30:21 733.845 
7 *30:21 *537:rf_adc_i_in[0] 25.6161 
*END

*D_NET *31 0.200413
*CONN
*P io_in[10] I
*I *537:rf_adc_i_in[10] I *D phase_099_top_integration
*CAP
1 io_in[10] 0.0475122
2 *537:rf_adc_i_in[10] 0.000922755
3 *31:13 0.0181343
4 *31:11 0.0172115
5 *31:9 0.0027407
6 *31:7 0.0027407
7 *31:5 0.0475122
8 *537:rf_adc_i_in[10] *63:29 0.000122805
9 *31:9 *61:19 0.000247286
10 *31:9 *295:29 0
11 *31:9 *295:31 0.000684611
12 *31:9 *317:31 0.00489406
13 *31:9 *320:15 2.12347e-06
14 *31:9 *331:15 0
15 *31:9 *363:23 0.000598011
16 *31:13 *61:21 0.0021607
17 *31:13 *63:29 2.73373e-05
18 *31:13 *64:23 0.00398592
19 *31:13 *132:13 0.0020931
20 *31:13 *136:11 0
21 *31:13 *295:11 0.0117926
22 *31:13 *316:11 0.0017445
23 *31:13 *320:13 0.00382456
24 *31:13 *323:13 0.0200649
25 *31:13 *329:11 0.00151103
26 *31:13 *330:11 0.00134718
27 *31:13 *332:13 0.000154751
28 *31:13 *334:13 0.00835407
29 *31:13 *341:13 2.944e-05
*RES
1 io_in[10] *31:5 159.955 
2 *31:5 *31:7 8 
3 *31:7 *31:9 83.955 
4 *31:9 *31:11 8 
5 *31:11 *31:13 97.6005 
6 *31:13 *537:rf_adc_i_in[10] 23.1836 
*END

*D_NET *32 0.167673
*CONN
*P io_in[11] I
*I *537:rf_adc_i_in[11] I *D phase_099_top_integration
*CAP
1 io_in[11] 0.0746456
2 *537:rf_adc_i_in[11] 1.28542e-05
3 *32:9 0.00917084
4 *32:7 0.00915798
5 *32:5 0.0746456
6 *32:9 *33:9 0
7 *32:9 *309:9 4.05005e-05
*RES
1 io_in[11] *32:5 254.837 
2 *32:5 *32:7 8 
3 *32:7 *32:9 204.388 
4 *32:9 *537:rf_adc_i_in[11] 0.310714 
*END

*D_NET *33 0.194233
*CONN
*P io_in[12] I
*I *537:rf_adc_i_in[12] I *D phase_099_top_integration
*CAP
1 io_in[12] 0.0760662
2 *537:rf_adc_i_in[12] 1.28542e-05
3 *33:9 0.0210502
4 *33:7 0.0210374
5 *33:5 0.0760662
6 *33:9 *34:9 0
7 *32:9 *33:9 0
*RES
1 io_in[12] *33:5 254.236 
2 *33:5 *33:7 8 
3 *33:7 *33:9 479.059 
4 *33:9 *537:rf_adc_i_in[12] 0.310714 
*END

*D_NET *34 0.217746
*CONN
*P io_in[13] I
*I *537:rf_adc_i_in[13] I *D phase_099_top_integration
*CAP
1 io_in[13] 0.0758458
2 *537:rf_adc_i_in[13] 1.28542e-05
3 *34:9 0.0328032
4 *34:7 0.0327903
5 *34:5 0.0758458
6 *34:9 *132:11 0.000447959
7 *33:9 *34:9 0
*RES
1 io_in[13] *34:5 253.635 
2 *34:5 *34:7 8 
3 *34:7 *34:9 754.435 
4 *34:9 *537:rf_adc_i_in[13] 0.310714 
*END

*D_NET *35 0.240255
*CONN
*P io_in[14] I
*I *537:rf_adc_i_in[14] I *D phase_099_top_integration
*CAP
1 io_in[14] 0.0742799
2 *537:rf_adc_i_in[14] 1.28542e-05
3 *35:9 0.044823
4 *35:7 0.0448101
5 *35:5 0.0742799
6 *35:5 io_out[24] 0.00204922
7 *35:9 *36:13 0
*RES
1 io_in[14] *35:5 251.832 
2 *35:5 *35:7 8 
3 *35:7 *35:9 1029.81 
4 *35:9 *537:rf_adc_i_in[14] 0.310714 
*END

*D_NET *36 0.323737
*CONN
*P io_in[15] I
*I *537:rf_adc_i_in[15] I *D phase_099_top_integration
*CAP
1 io_in[15] 0.000719569
2 *537:rf_adc_i_in[15] 1.28542e-05
3 *36:13 0.0515206
4 *36:11 0.0515077
5 *36:9 0.0373267
6 *36:7 0.0380463
7 *36:9 io_oeb[17] 0.00699588
8 *36:9 *37:9 0.0919206
9 *36:9 *77:25 0.00989326
10 *36:9 *113:11 0.0357932
11 *35:9 *36:13 0
*RES
1 io_in[15] *36:7 24.2711 
2 *36:7 *36:9 230.179 
3 *36:9 *36:11 8 
4 *36:11 *36:13 1184.05 
5 *36:13 *537:rf_adc_i_in[15] 0.310714 
*END

*D_NET *37 0.656299
*CONN
*P io_in[16] I
*I *537:rf_adc_q_in[0] I *D phase_099_top_integration
*CAP
1 io_in[16] 0.000761779
2 *537:rf_adc_q_in[0] 0.000137253
3 *37:13 0.0885421
4 *37:11 0.0884049
5 *37:9 0.0585876
6 *37:7 0.0593493
7 *537:rf_adc_q_in[0] *537:rf_adc_q_in[13] 9.22014e-05
8 *537:rf_adc_q_in[0] *277:27 0
9 *537:rf_adc_q_in[0] *281:33 7.74531e-05
10 *537:rf_adc_q_in[0] *286:33 2.58697e-05
11 *37:9 io_out[17] 0.000211676
12 *37:9 io_out[18] 0.000213695
13 *37:9 *39:9 0.0415064
14 *37:9 *40:9 0.063937
15 *37:9 *77:25 0.00349861
16 *37:9 *78:29 4.49573e-06
17 *37:13 *51:9 0.0140477
18 *37:13 *53:9 0.0087418
19 *37:13 *77:21 0.104191
20 *37:13 *126:15 0.000605057
21 *37:13 *277:15 0.0201341
22 *37:13 *286:15 0.0104778
23 *37:13 *286:19 0.000830782
24 *36:9 *37:9 0.0919206
*RES
1 io_in[16] *37:7 24.9754 
2 *37:7 *37:9 300.203 
3 *37:9 *37:11 8 
4 *37:11 *37:13 436.453 
5 *37:13 *537:rf_adc_q_in[0] 18.0107 
*END

*D_NET *38 0.407742
*CONN
*P io_in[17] I
*I *537:rf_adc_q_in[1] I *D phase_099_top_integration
*CAP
1 io_in[17] 0.105732
2 *537:rf_adc_q_in[1] 8.5341e-05
3 *38:9 0.0505171
4 *38:7 0.0504317
5 *38:5 0.105732
6 *537:rf_adc_q_in[1] *537:rf_adc_q_in[15] 0
7 *38:9 *537:rf_adc_q_in[5] 0.00131632
8 *38:9 *537:rf_adc_q_in[9] 0.000678102
9 *38:9 *76:9 0.012793
10 *38:9 *77:17 4.62763e-05
11 *38:9 *78:21 9.24636e-05
12 *38:9 *80:23 4.62843e-05
13 *38:9 *277:27 0.00117854
14 *38:9 *279:35 9.24631e-05
15 *38:9 *281:33 2.047e-05
16 *38:9 *286:33 0.000349349
17 *38:9 *286:37 0.0153086
18 *38:9 *307:19 0.0438691
19 *38:9 *307:29 0.0112823
20 *38:9 *308:37 0.00132112
21 *38:9 *312:23 0.00025169
22 *38:9 *312:27 0.00357407
23 *38:9 *315:33 0.00293233
24 *38:9 *316:29 2.04785e-05
25 *38:9 *320:33 2.04785e-05
26 *38:9 *334:19 0
27 *38:9 *334:29 2.047e-05
28 *38:9 *341:29 2.89336e-05
*RES
1 io_in[17] *38:5 2443.24 
2 *38:5 *38:7 8 
3 *38:7 *38:9 235.889 
4 *38:9 *537:rf_adc_q_in[1] 9.48107 
*END

*D_NET *39 0.616143
*CONN
*P io_in[18] I
*I *537:rf_adc_q_in[2] I *D phase_099_top_integration
*CAP
1 io_in[18] 0.000790336
2 *537:rf_adc_q_in[2] 0.000473477
3 *39:13 0.0275836
4 *39:11 0.0271102
5 *39:9 0.0467932
6 *39:7 0.0475835
7 *537:rf_adc_q_in[2] *537:rf_adc_q_in[13] 0.000828432
8 *537:rf_adc_q_in[2] *77:17 0.00215062
9 *537:rf_adc_q_in[2] *80:23 0.000720811
10 *39:13 *42:13 0.190766
11 *39:13 *77:21 0.0391462
12 *39:13 *78:25 0.190615
13 *39:13 *279:15 7.58749e-05
14 *37:9 *39:9 0.0415064
*RES
1 io_in[18] *39:7 32.1514 
2 *39:7 *39:9 991.116 
3 *39:9 *39:11 15 
4 *39:11 *39:13 2421.3 
5 *39:13 *537:rf_adc_q_in[2] 19.9629 
*END

*D_NET *40 0.51026
*CONN
*P io_in[19] I
*I *537:rf_adc_q_in[3] I *D phase_099_top_integration
*CAP
1 io_in[19] 0.000730928
2 *537:rf_adc_q_in[3] 0.00114978
3 *40:13 0.0677914
4 *40:11 0.0666417
5 *40:9 0.0105486
6 *40:7 0.0112795
7 *537:rf_adc_q_in[3] *537:rf_adc_q_in[4] 0
8 *537:rf_adc_q_in[3] *44:9 0.000645163
9 *537:rf_adc_q_in[3] *290:19 0.00224618
10 *40:9 *77:25 0.063937
11 *40:13 *537:rf_adc_q_in[11] 0.000303447
12 *40:13 *42:13 0.191722
13 *40:13 *77:21 0.029327
14 *37:9 *40:9 0.063937
*RES
1 io_in[19] *40:7 24.2711 
2 *40:7 *40:9 117.951 
3 *40:9 *40:11 8 
4 *40:11 *40:13 2434.16 
5 *40:13 *537:rf_adc_q_in[3] 29.937 
*END

*D_NET *41 0.427752
*CONN
*P io_in[1] I
*I *537:rf_adc_i_in[1] I *D phase_099_top_integration
*CAP
1 io_in[1] 0.00109438
2 *537:rf_adc_i_in[1] 0.000675746
3 *41:21 0.0107235
4 *41:19 0.0100478
5 *41:17 0.0957025
6 *41:15 0.0957025
7 *41:13 0.0368133
8 *41:11 0.0379076
9 *537:rf_adc_i_in[1] *537:rf_adc_i_in[3] 0
10 *537:rf_adc_i_in[1] *296:7 1.57662e-05
11 *41:21 *52:21 0.0691874
12 *41:21 *126:11 0.00398625
13 *41:21 *136:11 0.000690273
14 *41:21 *277:11 0.020093
15 *41:21 *307:11 0.0204745
16 *41:21 *322:11 0.0113412
17 *41:21 *330:11 0.00428673
18 *30:21 *41:21 0.00900945
*RES
1 io_in[1] *41:11 29.3003 
2 *41:11 *41:13 821.508 
3 *41:13 *41:15 15 
4 *41:15 *41:17 2209.84 
5 *41:17 *41:19 15 
6 *41:19 *41:21 757.19 
7 *41:21 *537:rf_adc_i_in[1] 25.8646 
*END

*D_NET *42 0.542065
*CONN
*P io_in[20] I
*I *537:rf_adc_q_in[4] I *D phase_099_top_integration
*CAP
1 io_in[20] 0.000627017
2 *537:rf_adc_q_in[4] 0.00113183
3 *42:13 0.0288713
4 *42:11 0.0277395
5 *42:9 0.00839034
6 *42:7 0.00901736
7 *537:rf_adc_q_in[4] *537:rf_adc_q_in[15] 0.001384
8 *537:rf_adc_q_in[4] *277:29 1.7998e-06
9 *537:rf_adc_q_in[4] *289:19 0.00036012
10 *537:rf_adc_q_in[4] *290:19 0.00256525
11 *42:9 *78:29 0.031129
12 *42:9 *80:33 0.014062
13 *42:13 *537:rf_adc_q_in[10] 0
14 *42:13 *537:rf_adc_q_in[11] 2.60126e-05
15 *42:13 *77:21 0.034136
16 *42:13 *78:25 8.1669e-05
17 *42:13 *277:15 0
18 *42:13 *279:15 5.4358e-05
19 *537:rf_adc_q_in[3] *537:rf_adc_q_in[4] 0
20 *39:13 *42:13 0.190766
21 *40:13 *42:13 0.191722
*RES
1 io_in[20] *42:7 22.1582 
2 *42:7 *42:9 57.4149 
3 *42:9 *42:11 8 
4 *42:11 *42:13 2437.68 
5 *42:13 *537:rf_adc_q_in[4] 32.4231 
*END

*D_NET *43 0.221606
*CONN
*P io_in[21] I
*I *537:rf_adc_q_in[5] I *D phase_099_top_integration
*CAP
1 io_in[21] 0.105623
2 *537:rf_adc_q_in[5] 0.00133374
3 *43:5 0.106957
4 *537:rf_adc_q_in[5] *537:rf_adc_q_in[6] 0
5 *537:rf_adc_q_in[5] *537:rf_adc_q_in[9] 0.00473364
6 *537:rf_adc_q_in[5] *277:27 0.00050779
7 *537:rf_adc_q_in[5] *277:29 2.48919e-05
8 *537:rf_adc_q_in[5] *299:33 0.00110988
9 *43:5 *71:5 0
10 *38:9 *537:rf_adc_q_in[5] 0.00131632
*RES
1 io_in[21] *43:5 2443.94 
2 *43:5 *537:rf_adc_q_in[5] 27.528 
*END

*D_NET *44 0.262498
*CONN
*P io_in[22] I
*I *537:rf_adc_q_in[6] I *D phase_099_top_integration
*CAP
1 io_in[22] 0.105782
2 *537:rf_adc_q_in[6] 0.000382731
3 *44:9 0.0161059
4 *44:7 0.0157231
5 *44:5 0.105782
6 *537:rf_adc_q_in[6] *537:rf_adc_q_in[7] 0
7 *537:rf_adc_q_in[6] *277:29 0
8 *44:9 *537:rf_adc_q_in[7] 0.00688244
9 *44:9 *48:15 0.00211903
10 *44:9 *50:13 0.00857581
11 *44:9 *290:19 0.000500291
12 *537:rf_adc_q_in[3] *44:9 0.000645163
13 *537:rf_adc_q_in[5] *537:rf_adc_q_in[6] 0
*RES
1 io_in[22] *44:5 2448.17 
2 *44:5 *44:7 8 
3 *44:7 *44:9 69.9515 
4 *44:9 *537:rf_adc_q_in[6] 14.9393 
*END

*D_NET *45 0.319165
*CONN
*P io_in[23] I
*I *537:rf_adc_q_in[7] I *D phase_099_top_integration
*CAP
1 io_in[23] 0.000750419
2 *537:rf_adc_q_in[7] 0.00244789
3 *45:13 0.100218
4 *45:11 0.0977698
5 *45:9 0.034918
6 *45:7 0.0356684
7 *537:rf_adc_q_in[7] *537:rf_adc_q_in[8] 0.000127901
8 *537:rf_adc_q_in[7] *50:13 0.00189926
9 *537:rf_adc_q_in[7] *290:19 4.41975e-05
10 *537:rf_adc_q_in[7] *296:29 0.000277582
11 *537:rf_adc_q_in[7] *308:37 0.00140477
12 *45:9 io_oeb[21] 0.000750312
13 *45:13 *54:9 0.0360067
14 *45:13 *70:5 0
15 *537:rf_adc_q_in[6] *537:rf_adc_q_in[7] 0
16 *44:9 *537:rf_adc_q_in[7] 0.00688244
*RES
1 io_in[23] *45:7 24.9754 
2 *45:7 *45:9 117.436 
3 *45:9 *45:11 8 
4 *45:11 *45:13 2430.64 
5 *45:13 *537:rf_adc_q_in[7] 36.0297 
*END

*D_NET *46 0.318474
*CONN
*P io_in[24] I
*I *537:rf_adc_q_in[8] I *D phase_099_top_integration
*CAP
1 io_in[24] 0.0444823
2 *537:rf_adc_q_in[8] 0.00235642
3 *46:9 0.103708
4 *46:7 0.101351
5 *46:5 0.0444823
6 *537:rf_adc_q_in[8] *537:rf_adc_q_in[9] 0.0112028
7 *537:rf_adc_q_in[8] *50:13 0.00747871
8 *537:rf_adc_q_in[8] *308:37 0.00328534
9 *537:rf_adc_q_in[7] *537:rf_adc_q_in[8] 0.000127901
*RES
1 io_in[24] *46:5 148.534 
2 *46:5 *46:7 8 
3 *46:7 *46:9 2345.42 
4 *46:9 *537:rf_adc_q_in[8] 40.9579 
*END

*D_NET *47 0.293059
*CONN
*P io_in[25] I
*I *537:rf_adc_q_in[9] I *D phase_099_top_integration
*CAP
1 io_in[25] 0.0421416
2 *537:rf_adc_q_in[9] 0.00529112
3 *47:9 0.0948908
4 *47:7 0.0895997
5 *47:5 0.0421416
6 *537:rf_adc_q_in[9] *50:13 0.00222933
7 *537:rf_adc_q_in[9] *308:37 0.00015038
8 *537:rf_adc_q_in[5] *537:rf_adc_q_in[9] 0.00473364
9 *537:rf_adc_q_in[8] *537:rf_adc_q_in[9] 0.0112028
10 *38:9 *537:rf_adc_q_in[9] 0.000678102
*RES
1 io_in[25] *47:5 140.806 
2 *47:5 *47:7 8 
3 *47:7 *47:9 2074.27 
4 *47:9 *537:rf_adc_q_in[9] 48.5827 
*END

*D_NET *48 0.257328
*CONN
*P io_in[26] I
*I *537:rf_adc_q_in[10] I *D phase_099_top_integration
*CAP
1 io_in[26] 0.0379968
2 *537:rf_adc_q_in[10] 0.000656597
3 *48:15 0.00737493
4 *48:9 0.0849931
5 *48:7 0.0782748
6 *48:5 0.0379968
7 *537:rf_adc_q_in[10] *537:clk_2p4g 0
8 *537:rf_adc_q_in[10] *277:27 5.79868e-05
9 *537:rf_adc_q_in[10] *296:17 0
10 *48:15 *537:rf_adc_q_in[15] 0.00324171
11 *48:15 *49:15 0.0036605
12 *48:15 *290:19 0.000955879
13 *42:13 *537:rf_adc_q_in[10] 0
14 *44:9 *48:15 0.00211903
*RES
1 io_in[26] *48:5 129.214 
2 *48:5 *48:7 8 
3 *48:7 *48:9 1811.57 
4 *48:9 *48:15 48.0843 
5 *48:15 *537:rf_adc_q_in[10] 11.745 
*END

*D_NET *49 0.234394
*CONN
*P io_in[27] I
*I *537:rf_adc_q_in[11] I *D phase_099_top_integration
*CAP
1 io_in[27] 0.0391949
2 *537:rf_adc_q_in[11] 0.000572319
3 *49:15 0.00808111
4 *49:9 0.0742633
5 *49:7 0.0667545
6 *49:5 0.0391949
7 *537:rf_adc_q_in[11] *537:rf_adc_q_in[12] 8.49339e-05
8 *49:15 *537:rf_adc_q_in[15] 0.00134799
9 *49:15 *273:13 0
10 *49:15 *455:25 0.000909913
11 *40:13 *537:rf_adc_q_in[11] 0.000303447
12 *42:13 *537:rf_adc_q_in[11] 2.60126e-05
13 *48:15 *49:15 0.0036605
*RES
1 io_in[27] *49:5 130.502 
2 *49:5 *49:7 8 
3 *49:7 *49:9 1544.64 
4 *49:9 *49:15 47.7408 
5 *49:15 *537:rf_adc_q_in[11] 13.1329 
*END

*D_NET *50 0.217462
*CONN
*P io_in[28] I
*I *537:rf_adc_q_in[12] I *D phase_099_top_integration
*CAP
1 io_in[28] 0.00332801
2 *537:rf_adc_q_in[12] 0.000350996
3 *50:13 0.0405588
4 *50:11 0.0402078
5 *50:9 0.05471
6 *50:7 0.058038
7 *537:rf_adc_q_in[12] *286:33 0
8 *537:rf_adc_q_in[11] *537:rf_adc_q_in[12] 8.49339e-05
9 *537:rf_adc_q_in[7] *50:13 0.00189926
10 *537:rf_adc_q_in[8] *50:13 0.00747871
11 *537:rf_adc_q_in[9] *50:13 0.00222933
12 *44:9 *50:13 0.00857581
*RES
1 io_in[28] *50:7 18.7184 
2 *50:7 *50:9 1265.75 
3 *50:9 *50:11 8 
4 *50:11 *50:13 151.782 
5 *50:13 *537:rf_adc_q_in[12] 14.1107 
*END

*D_NET *51 0.280595
*CONN
*P io_in[29] I
*I *537:rf_adc_q_in[13] I *D phase_099_top_integration
*CAP
1 io_in[29] 0.0488885
2 *537:rf_adc_q_in[13] 0.000341957
3 *51:9 0.0122452
4 *51:7 0.0119032
5 *51:5 0.0488885
6 *537:rf_adc_q_in[13] *537:rf_adc_q_in[14] 1.91356e-05
7 *537:rf_adc_q_in[13] *77:17 1.02995e-05
8 *537:rf_adc_q_in[13] *78:21 2.03586e-05
9 *537:rf_adc_q_in[13] *80:23 0.000114763
10 *537:rf_adc_q_in[13] *281:33 5.50667e-05
11 *537:rf_adc_q_in[13] *286:33 0.000937881
12 *51:9 *53:9 0.0563932
13 *51:9 *277:15 0.0778981
14 *51:9 *281:15 0
15 *51:9 *286:15 0.00785625
16 *51:9 *286:19 5.45998e-05
17 *537:rf_adc_q_in[0] *537:rf_adc_q_in[13] 9.22014e-05
18 *537:rf_adc_q_in[2] *537:rf_adc_q_in[13] 0.000828432
19 *37:13 *51:9 0.0140477
*RES
1 io_in[29] *51:5 161.329 
2 *51:5 *51:7 8 
3 *51:7 *51:9 987.554 
4 *51:9 *537:rf_adc_q_in[13] 18.8507 
*END

*D_NET *52 0.393693
*CONN
*P io_in[2] I
*I *537:rf_adc_i_in[2] I *D phase_099_top_integration
*CAP
1 io_in[2] 0.00113809
2 *537:rf_adc_i_in[2] 0.00066715
3 *52:21 0.0150245
4 *52:19 0.0143573
5 *52:17 0.086725
6 *52:15 0.086725
7 *52:13 0.036501
8 *52:11 0.037639
9 *537:rf_adc_i_in[2] *537:rf_adc_i_in[3] 0
10 *537:rf_adc_i_in[2] *344:17 0
11 *52:21 *126:11 0.0039386
12 *52:21 *136:11 0.000690273
13 *52:21 *272:11 0.000101691
14 *52:21 *277:11 0.000317346
15 *52:21 *281:11 0.0231747
16 *52:21 *298:11 0.00749987
17 *52:21 *330:11 0.00707912
18 *52:21 *357:11 0.00292687
19 *41:21 *52:21 0.0691874
*RES
1 io_in[2] *52:11 30.3568 
2 *52:11 *52:13 814.361 
3 *52:13 *52:15 15 
4 *52:15 *52:17 2002.08 
5 *52:17 *52:19 15 
6 *52:19 *52:21 770.53 
7 *52:21 *537:rf_adc_i_in[2] 25.9889 
*END

*D_NET *53 0.217152
*CONN
*P io_in[30] I
*I *537:rf_adc_q_in[14] I *D phase_099_top_integration
*CAP
1 io_in[30] 0.0488661
2 *537:rf_adc_q_in[14] 0.000871356
3 *53:9 0.0101739
4 *53:7 0.0093025
5 *53:5 0.0488661
6 *537:rf_adc_q_in[14] *78:21 0.000930327
7 *537:rf_adc_q_in[14] *131:13 0.000136151
8 *537:rf_adc_q_in[14] *286:33 0.000131653
9 *53:9 *286:15 0.0265526
10 *53:9 *286:19 0.00616716
11 *537:rf_adc_q_in[13] *537:rf_adc_q_in[14] 1.91356e-05
12 *37:13 *53:9 0.0087418
13 *51:9 *53:9 0.0563932
*RES
1 io_in[30] *53:5 161.243 
2 *53:5 *53:7 8 
3 *53:7 *53:9 714.995 
4 *53:9 *537:rf_adc_q_in[14] 24.0885 
*END

*D_NET *54 0.165473
*CONN
*P io_in[31] I
*I *537:rf_adc_q_in[15] I *D phase_099_top_integration
*CAP
1 io_in[31] 0.046751
2 *537:rf_adc_q_in[15] 0.00199824
3 *54:9 0.0146967
4 *54:7 0.0126984
5 *54:5 0.046751
6 *537:rf_adc_q_in[15] *289:19 0.000308954
7 *537:rf_adc_q_in[15] *290:19 0.00016615
8 *537:rf_adc_q_in[15] *455:25 0.000122549
9 *54:9 *70:5 0
10 *537:rf_adc_q_in[1] *537:rf_adc_q_in[15] 0
11 *537:rf_adc_q_in[4] *537:rf_adc_q_in[15] 0.001384
12 *45:13 *54:9 0.0360067
13 *48:15 *537:rf_adc_q_in[15] 0.00324171
14 *49:15 *537:rf_adc_q_in[15] 0.00134799
*RES
1 io_in[31] *54:5 155.06 
2 *54:5 *54:7 8 
3 *54:7 *54:9 462.156 
4 *54:9 *537:rf_adc_q_in[15] 36.6663 
*END

*D_NET *61 0.468592
*CONN
*P io_in[3] I
*I *537:rf_adc_i_in[3] I *D phase_099_top_integration
*CAP
1 io_in[3] 0.0471825
2 *537:rf_adc_i_in[3] 0.000442144
3 *61:29 0.00281982
4 *61:21 0.0135741
5 *61:19 0.0114794
6 *61:9 0.092177
7 *61:7 0.091894
8 *61:5 0.0471825
9 *537:rf_adc_i_in[3] *322:25 0.000305025
10 *61:9 *295:31 0.0228101
11 *61:9 *298:23 0.0422039
12 *61:9 *320:15 0.0054932
13 *61:19 *64:13 0
14 *61:19 *320:15 3.43399e-05
15 *61:19 *341:13 5.87407e-05
16 *61:19 *363:23 0.000170524
17 *61:21 *62:21 0.0124431
18 *61:21 *63:21 0.0130203
19 *61:21 *292:11 0.0152269
20 *61:21 *295:19 0.00049795
21 *61:21 *315:11 0.00691531
22 *61:21 *329:11 0.0177457
23 *61:21 *330:11 0.00201048
24 *61:21 *332:13 0.00116251
25 *61:21 *363:19 0.00206888
26 *61:29 *126:11 0.00484696
27 *61:29 *272:11 0.00983307
28 *61:29 *281:11 0.00181285
29 *61:29 *291:9 0
30 *61:29 *363:17 0.000772553
31 *537:rf_adc_i_in[1] *537:rf_adc_i_in[3] 0
32 *537:rf_adc_i_in[2] *537:rf_adc_i_in[3] 0
33 *31:9 *61:19 0.000247286
34 *31:13 *61:21 0.0021607
*RES
1 io_in[3] *61:5 159.74 
2 *61:5 *61:7 8 
3 *61:7 *61:9 324.244 
4 *61:9 *61:19 34.8469 
5 *61:19 *61:21 611.879 
6 *61:21 *61:29 44.6642 
7 *61:29 *537:rf_adc_i_in[3] 16.6793 
*END

*D_NET *62 0.412622
*CONN
*P io_in[4] I
*I *537:rf_adc_i_in[4] I *D phase_099_top_integration
*CAP
1 io_in[4] 0.000941831
2 *537:rf_adc_i_in[4] 0.00404599
3 *62:27 0.00410256
4 *62:21 0.00182889
5 *62:19 0.00209579
6 *62:13 0.0582198
7 *62:11 0.0578964
8 *62:9 0.049821
9 *62:7 0.0507628
10 *537:rf_adc_i_in[4] *63:29 0.0111728
11 *537:rf_adc_i_in[4] *64:23 0.00494664
12 *537:rf_adc_i_in[4] *126:11 0.00250577
13 *537:rf_adc_i_in[4] *132:13 0.000766131
14 *537:rf_adc_i_in[4] *289:11 0.00239643
15 *537:rf_adc_i_in[4] *363:17 0
16 *62:9 *63:11 0.000520177
17 *62:9 *64:9 0.0925837
18 *62:13 *64:13 0.0330479
19 *62:13 *344:11 0.00419129
20 *62:13 *352:21 0.00388145
21 *62:13 *362:9 0
22 *62:19 *113:7 0.0001745
23 *62:19 *322:17 0.000136486
24 *62:21 *63:21 0.0111837
25 *62:21 *64:23 0.00224345
26 *62:21 *363:19 0.000713115
27 *537:rf_adc_i_in[0] *537:rf_adc_i_in[4] 0
28 *61:21 *62:21 0.0124431
*RES
1 io_in[4] *62:7 11.0763 
2 *62:7 *62:9 1588.84 
3 *62:9 *62:11 15 
4 *62:11 *62:13 1289.36 
5 *62:13 *62:19 36.8357 
6 *62:19 *62:21 136.404 
7 *62:21 *62:27 23.6732 
8 *62:27 *537:rf_adc_i_in[4] 48.5826 
*END

*D_NET *63 0.342872
*CONN
*P io_in[5] I
*I *537:rf_adc_i_in[5] I *D phase_099_top_integration
*CAP
1 io_in[5] 0.00117543
2 *537:rf_adc_i_in[5] 0.000793841
3 *63:29 0.00401271
4 *63:21 0.0110953
5 *63:19 0.00787646
6 *63:17 0.0600224
7 *63:15 0.0600224
8 *63:13 0.0403706
9 *63:11 0.041546
10 *537:rf_adc_i_in[5] *289:9 0
11 *537:rf_adc_i_in[5] *299:15 2.72383e-05
12 *63:17 *314:15 0
13 *63:17 *329:15 0
14 *63:21 *64:23 0.00197304
15 *63:21 *292:11 0.0152269
16 *63:21 *315:11 0.000169126
17 *63:21 *329:11 0.000119582
18 *63:21 *330:11 0.00107618
19 *63:21 *332:13 0.00307659
20 *63:21 *341:13 0.000918088
21 *63:21 *363:19 0.0494054
22 *63:29 *64:23 0.000720743
23 *63:29 *132:13 0.00614798
24 *537:rf_adc_i_in[10] *63:29 0.000122805
25 *537:rf_adc_i_in[4] *63:29 0.0111728
26 *30:21 *63:21 0.00104865
27 *31:13 *63:29 2.73373e-05
28 *61:21 *63:21 0.0130203
29 *62:9 *63:11 0.000520177
30 *62:21 *63:21 0.0111837
*RES
1 io_in[5] *63:11 32.8218 
2 *63:11 *63:13 850.094 
3 *63:13 *63:15 15 
4 *63:15 *63:17 1382.31 
5 *63:17 *63:19 15 
6 *63:19 *63:21 561.378 
7 *63:21 *63:29 48.4848 
8 *63:29 *537:rf_adc_i_in[5] 21.05 
*END

*D_NET *64 0.429914
*CONN
*P io_in[6] I
*I *537:rf_adc_i_in[6] I *D phase_099_top_integration
*CAP
1 io_in[6] 0.000905974
2 *537:rf_adc_i_in[6] 0.000759153
3 *64:23 0.00638277
4 *64:19 0.00606135
5 *64:13 0.055837
6 *64:11 0.0553993
7 *64:9 0.0265381
8 *64:7 0.027444
9 *537:rf_adc_i_in[6] *326:9 0
10 *64:9 *67:9 0.0271859
11 *64:13 *66:13 0
12 *64:13 *67:15 0
13 *64:13 *67:17 0
14 *64:13 *295:29 0
15 *64:13 *312:9 3.12959e-05
16 *64:13 *317:19 0.0390107
17 *64:13 *318:11 0.0127437
18 *64:13 *326:11 0.00123468
19 *64:13 *341:13 0
20 *64:13 *346:11 0.0186531
21 *64:13 *351:19 0.000473527
22 *64:13 *352:21 0.0013077
23 *64:19 *121:9 0
24 *64:23 *126:11 0.00788462
25 *64:23 *136:11 0
26 *64:23 *272:11 0.000156395
27 *64:23 *329:11 0.000783693
28 *64:23 *363:19 0.00161923
29 *537:rf_adc_i_in[4] *64:23 0.00494664
30 *31:13 *64:23 0.00398592
31 *61:19 *64:13 0
32 *62:9 *64:9 0.0925837
33 *62:13 *64:13 0.0330479
34 *62:21 *64:23 0.00224345
35 *63:21 *64:23 0.00197304
36 *63:29 *64:23 0.000720743
*RES
1 io_in[6] *64:7 10.9904 
2 *64:7 *64:9 1175.6 
3 *64:9 *64:11 8 
4 *64:11 *64:13 233.957 
5 *64:13 *64:19 23.1879 
6 *64:19 *64:23 40.256 
7 *64:23 *537:rf_adc_i_in[6] 11.9729 
*END

*D_NET *65 0.270598
*CONN
*P io_in[7] I
*I *537:rf_adc_i_in[7] I *D phase_099_top_integration
*CAP
1 io_in[7] 0.0433233
2 *537:rf_adc_i_in[7] 0.000843897
3 *65:13 0.024915
4 *65:11 0.0240711
5 *65:9 0.0386232
6 *65:7 0.0386232
7 *65:5 0.0433233
8 *537:rf_adc_i_in[7] *130:10 0.000848734
9 *537:rf_adc_i_in[7] *340:6 0.000495234
10 *65:13 *67:17 0
11 *65:13 *317:29 0.000703646
12 *65:13 *318:21 5.83296e-06
13 *65:13 *321:20 0.000125007
14 *65:13 *325:18 0.054396
15 *65:13 *340:14 0.000300439
*RES
1 io_in[7] *65:5 147.332 
2 *65:5 *65:7 8 
3 *65:7 *65:9 890.362 
4 *65:9 *65:11 8 
5 *65:11 *65:13 114.645 
6 *65:13 *537:rf_adc_i_in[7] 27.9237 
*END

*D_NET *66 0.280257
*CONN
*P io_in[8] I
*I *537:rf_adc_i_in[8] I *D phase_099_top_integration
*CAP
1 io_in[8] 0.0435033
2 *537:rf_adc_i_in[8] 0
3 *66:13 0.0139663
4 *66:11 0.0139663
5 *66:9 0.0269095
6 *66:7 0.0269095
7 *66:5 0.0435033
8 *66:5 *142:11 0.0006106
9 *66:13 *67:17 0.057813
10 *66:13 *130:10 0.000392042
11 *66:13 *312:9 3.15007e-05
12 *66:13 *323:21 0.000938285
13 *66:13 *340:6 0.0512862
14 *66:13 *353:11 0.000213654
15 *66:13 *362:9 0.000213654
16 *64:13 *66:13 0
*RES
1 io_in[8] *66:5 146.044 
2 *66:5 *66:7 8 
3 *66:7 *66:9 619.916 
4 *66:9 *66:11 8 
5 *66:11 *66:13 113.701 
6 *66:13 *537:rf_adc_i_in[8] 8 
*END

*D_NET *67 0.282954
*CONN
*P io_in[9] I
*I *537:rf_adc_i_in[9] I *D phase_099_top_integration
*CAP
1 io_in[9] 0.000914105
2 *537:rf_adc_i_in[9] 0.00145516
3 *67:17 0.0570148
4 *67:15 0.0588131
5 *67:9 0.0126702
6 *67:7 0.0103309
7 *537:rf_adc_i_in[9] *126:11 0.000772118
8 *537:rf_adc_i_in[9] *135:9 0
9 *537:rf_adc_i_in[9] *272:11 0.00145676
10 *537:rf_adc_i_in[9] *281:11 0.000306993
11 *537:rf_adc_i_in[9] *338:16 0.000164186
12 *67:15 io_out[10] 0.00115464
13 *67:17 *130:8 0.00681062
14 *67:17 *130:10 0.000996457
15 *67:17 *304:11 0.00479758
16 *67:17 *314:11 0.00554538
17 *67:17 *318:21 0.00218108
18 *67:17 *321:8 0.00303918
19 *67:17 *321:10 0.00918966
20 *67:17 *325:18 0.000593126
21 *67:17 *338:18 0.0197486
22 *64:9 *67:9 0.0271859
23 *64:13 *67:15 0
24 *64:13 *67:17 0
25 *65:13 *67:17 0
26 *66:13 *67:17 0.057813
*RES
1 io_in[9] *67:7 10.9045 
2 *67:7 *67:9 345.245 
3 *67:9 *67:15 20.6467 
4 *67:15 *67:17 241.041 
5 *67:17 *537:rf_adc_i_in[9] 45.4022 
*END

*D_NET *68 0.274986
*CONN
*P io_oeb[0] O
*P la_oenb[0] I
*CAP
1 io_oeb[0] 0.11381
2 la_oenb[0] 0.00778574
3 *68:7 0.11381
4 *68:5 0.00778574
5 io_oeb[0] *101:9 0.0307
6 io_oeb[0] *299:177 0.00109474
*RES
1 la_oenb[0] *68:5 169.805 
2 *68:5 *68:7 8 
3 *68:7 io_oeb[0] 425.025 
*END

*D_NET *69 0.453208
*CONN
*P io_oeb[10] O
*P la_oenb[10] I
*CAP
1 io_oeb[10] 0.117532
2 la_oenb[10] 0.109073
3 *69:7 0.117532
4 *69:5 0.109073
*RES
1 la_oenb[10] *69:5 2508.03 
2 *69:5 *69:7 8 
3 *69:7 io_oeb[10] 391.881 
*END

*D_NET *70 0.474863
*CONN
*P io_oeb[11] O
*P la_oenb[11] I
*CAP
1 io_oeb[11] 0.116442
2 la_oenb[11] 0.12099
3 *70:7 0.116442
4 *70:5 0.12099
5 *70:5 la_data_out[11] 0
6 *70:5 *273:17 0
7 *45:13 *70:5 0
8 *54:9 *70:5 0
*RES
1 la_oenb[11] *70:5 2783.41 
2 *70:5 *70:7 8 
3 *70:7 io_oeb[11] 388.618 
*END

*D_NET *71 0.514031
*CONN
*P io_oeb[12] O
*P la_oenb[12] I
*CAP
1 io_oeb[12] 0.115295
2 la_oenb[12] 0.115741
3 *71:7 0.115295
4 *71:5 0.115741
5 *71:5 *290:15 3.63067e-05
6 *71:5 *291:15 0.051923
7 *43:5 *71:5 0
*RES
1 la_oenb[12] *71:5 3058.79 
2 *71:5 *71:7 8 
3 *71:7 io_oeb[12] 385.269 
*END

*D_NET *72 0.520001
*CONN
*P io_oeb[13] O
*P la_oenb[13] I
*CAP
1 io_oeb[13] 0.0382222
2 la_oenb[13] 0.00730594
3 *72:15 0.0382222
4 *72:13 0.137384
5 *72:11 0.137384
6 *72:9 0.0768308
7 *72:7 0.0768308
8 *72:5 0.00730594
9 *72:9 *308:141 0.000516036
*RES
1 la_oenb[13] *72:5 158.537 
2 *72:5 *72:7 8 
3 *72:7 *72:9 254.05 
4 *72:9 *72:11 8 
5 *72:11 *72:13 3175.06 
6 *72:13 *72:15 8 
7 *72:15 io_oeb[13] 128.012 
*END

*D_NET *73 0.543142
*CONN
*P io_oeb[14] O
*P la_oenb[14] I
*CAP
1 io_oeb[14] 0.0234779
2 la_oenb[14] 0.00829443
3 *73:15 0.0234779
4 *73:13 0.148264
5 *73:11 0.148264
6 *73:9 0.0909943
7 *73:7 0.0909943
8 *73:5 0.00829443
9 *73:5 *276:17 0
10 *73:9 *101:9 0
11 *73:9 *102:9 0
12 *73:9 *317:125 0.00108165
*RES
1 la_oenb[14] *73:5 180.37 
2 *73:5 *73:7 8 
3 *73:7 *73:9 299.645 
4 *73:9 *73:11 8 
5 *73:11 *73:13 3428.61 
6 *73:13 *73:15 8 
7 *73:15 io_oeb[14] 79.0683 
*END

*D_NET *74 0.603708
*CONN
*P io_oeb[15] O
*P la_oenb[15] I
*CAP
1 io_oeb[15] 0.156193
2 la_oenb[15] 0.00167247
3 *74:11 0.156193
4 *74:9 0.0549726
5 *74:7 0.056645
6 *74:9 io_oeb[37] 0.00083543
7 *74:9 *75:9 0.135582
8 *74:9 *194:9 0.0416141
*RES
1 la_oenb[15] *74:7 38.3568 
2 *74:7 *74:9 322.743 
3 *74:9 *74:11 8 
4 *74:11 io_oeb[15] 3611.65 
*END

*D_NET *75 0.618108
*CONN
*P io_oeb[16] O
*P la_oenb[16] I
*CAP
1 io_oeb[16] 0.15623
2 la_oenb[16] 0.00171336
3 *75:11 0.15623
4 *75:9 0.0325739
5 *75:7 0.0342873
6 *75:7 *278:17 0
7 *75:9 io_oeb[37] 0.0363986
8 *75:9 *323:29 0.0363033
9 *75:9 *358:13 0.0287894
10 *74:9 *75:9 0.135582
*RES
1 la_oenb[16] *75:7 39.0611 
2 *75:7 *75:9 258.944 
3 *75:9 *75:11 8 
4 *75:11 io_oeb[16] 3610.95 
*END

*D_NET *76 0.610484
*CONN
*P io_oeb[17] O
*P la_oenb[17] I
*CAP
1 io_oeb[17] 0.00199373
2 la_oenb[17] 0.0523739
3 *76:21 0.0978846
4 *76:19 0.101207
5 *76:15 0.015504
6 *76:11 0.0101878
7 *76:9 0.0541681
8 *76:7 0.0541681
9 *76:5 0.0523739
10 io_oeb[17] *113:11 0.00699588
11 *76:9 *77:17 7.09046e-06
12 *76:9 *78:21 1.945e-05
13 *76:9 *80:23 9.18986e-06
14 *76:9 *280:13 0
15 *76:9 *281:33 1.35507e-05
16 *76:9 *290:19 0
17 *76:9 *296:29 0.000340525
18 *76:9 *300:15 0
19 *76:9 *303:13 0.00389412
20 *76:9 *308:37 0.00168434
21 *76:9 *311:13 0
22 *76:9 *312:27 0.0118939
23 *76:9 *316:29 1.35549e-05
24 *76:9 *320:33 1.35549e-05
25 *76:9 *321:26 0
26 *76:9 *334:29 1.35507e-05
27 *76:9 *336:15 0
28 *76:9 *360:15 9.74935e-05
29 *76:15 *292:15 0.00275611
30 *76:15 *295:31 0.00688187
31 *76:15 *309:35 0
32 *76:15 *330:15 0.00735782
33 *76:15 *332:15 0.00320805
34 *76:15 *345:15 0.00250333
35 *76:19 *292:15 0.00206937
36 *76:19 *295:31 0.0115362
37 *76:19 *309:33 2.93912e-05
38 *76:19 *309:35 0
39 *76:19 *317:41 0
40 *76:19 *330:15 0.0032305
41 *76:19 *332:15 0.00177835
42 *76:19 *345:15 0.0023731
43 *76:21 *114:17 0.0169896
44 *76:21 *295:31 0.0251705
45 *76:21 *330:15 0.0278225
46 *76:21 *332:15 0.0121308
47 *36:9 io_oeb[17] 0.00699588
48 *38:9 *76:9 0.012793
*RES
1 la_oenb[17] *76:5 1195.25 
2 *76:5 *76:7 8 
3 *76:7 *76:9 207.982 
4 *76:9 *76:11 8 
5 *76:11 *76:15 43.6203 
6 *76:15 *76:19 27.5035 
7 *76:19 *76:21 368.017 
8 *76:21 io_oeb[17] 44.5457 
*END

*D_NET *77 0.747105
*CONN
*P io_oeb[18] O
*P la_oenb[18] I
*CAP
1 io_oeb[18] 0.000700078
2 la_oenb[18] 0.0517725
3 *77:25 0.0204287
4 *77:23 0.0197286
5 *77:21 0.0860552
6 *77:19 0.0860552
7 *77:17 0.00216047
8 *77:5 0.053933
9 *77:5 *296:37 0.000258943
10 *77:5 *299:81 0.000630483
11 *77:5 *308:45 0.0020255
12 *77:17 *80:23 0.00359238
13 *77:17 *281:33 0.00935333
14 *77:17 *308:37 2.07731e-06
15 *77:21 *78:25 0.0581584
16 *77:21 *80:27 0
17 *77:21 *279:15 0.0175571
18 *77:21 *289:15 0
19 *77:21 *308:23 0
20 *77:25 *78:29 0.0476129
21 *77:25 *113:11 0.000737324
22 *537:rf_adc_q_in[13] *77:17 1.02995e-05
23 *537:rf_adc_q_in[2] *77:17 0.00215062
24 *36:9 *77:25 0.00989326
25 *37:9 *77:25 0.00349861
26 *37:13 *77:21 0.104191
27 *38:9 *77:17 4.62763e-05
28 *39:13 *77:21 0.0391462
29 *40:9 *77:25 0.063937
30 *40:13 *77:21 0.029327
31 *42:13 *77:21 0.034136
32 *76:9 *77:17 7.09046e-06
*RES
1 la_oenb[18] *77:5 1198.06 
2 *77:5 *77:17 42.2728 
3 *77:17 *77:19 8 
4 *77:19 *77:21 436.834 
5 *77:21 *77:23 8 
6 *77:23 *77:25 148.391 
7 *77:25 io_oeb[18] 23.5668 
*END

*D_NET *78 0.666188
*CONN
*P io_oeb[19] O
*P la_oenb[19] I
*CAP
1 io_oeb[19] 0.000657868
2 la_oenb[19] 0.0521555
3 *78:29 0.0117368
4 *78:27 0.0110789
5 *78:25 0.0458792
6 *78:23 0.0458792
7 *78:21 0.00449841
8 *78:5 0.0566539
9 *78:5 *296:49 0.000964664
10 *78:5 *299:103 0
11 *78:5 *308:47 0
12 *78:21 *80:23 0.00907447
13 *78:21 *131:13 0
14 *78:21 *281:33 0
15 *78:21 *286:33 0.000709234
16 *78:25 *279:15 0.0982361
17 *78:25 *286:15 0
18 *537:rf_adc_q_in[13] *78:21 2.03586e-05
19 *537:rf_adc_q_in[14] *78:21 0.000930327
20 *37:9 *78:29 4.49573e-06
21 *38:9 *78:21 9.24636e-05
22 *39:13 *78:25 0.190615
23 *42:9 *78:29 0.031129
24 *42:13 *78:25 8.1669e-05
25 *76:9 *78:21 1.945e-05
26 *77:21 *78:25 0.0581584
27 *77:25 *78:29 0.0476129
*RES
1 la_oenb[19] *78:5 1198.06 
2 *78:5 *78:21 46.2843 
3 *78:21 *78:23 8 
4 *78:23 *78:25 2421.48 
5 *78:25 *78:27 8 
6 *78:27 *78:29 87.8976 
7 *78:29 io_oeb[19] 22.8625 
*END

*D_NET *79 0.28856
*CONN
*P io_oeb[1] O
*P la_oenb[1] I
*CAP
1 io_oeb[1] 0.127561
2 la_oenb[1] 0.0167191
3 *79:7 0.127561
4 *79:5 0.0167191
5 io_oeb[1] *318:77 0
*RES
1 la_oenb[1] *79:5 376.161 
2 *79:5 *79:7 8 
3 *79:7 io_oeb[1] 421.676 
*END

*D_NET *80 0.458447
*CONN
*P io_oeb[20] O
*P la_oenb[20] I
*CAP
1 io_oeb[20] 0.000596167
2 la_oenb[20] 0.0525645
3 *80:33 0.00563045
4 *80:27 0.0995728
5 *80:25 0.0945385
6 *80:23 0.00393915
7 *80:5 0.0565037
8 *80:23 *131:13 0
9 *80:23 *281:33 0.00040046
10 *80:23 *286:37 0
11 *80:27 *289:15 0.0976383
12 *80:27 *308:31 0.0194429
13 *537:rf_adc_q_in[13] *80:23 0.000114763
14 *537:rf_adc_q_in[2] *80:23 0.000720811
15 *38:9 *80:23 4.62843e-05
16 *42:9 *80:33 0.014062
17 *76:9 *80:23 9.18986e-06
18 *77:17 *80:23 0.00359238
19 *77:21 *80:27 0
20 *78:21 *80:23 0.00907447
*RES
1 la_oenb[20] *80:5 1198.06 
2 *80:5 *80:23 48.1453 
3 *80:23 *80:25 8 
4 *80:25 *80:27 436.834 
5 *80:27 *80:33 41.9448 
6 *80:33 io_oeb[20] 13.4539 
*END

*D_NET *81 0.35299
*CONN
*P io_oeb[21] O
*P la_oenb[21] I
*CAP
1 io_oeb[21] 0.00181896
2 la_oenb[21] 0.0275854
3 *81:13 0.131379
4 *81:11 0.12956
5 *81:9 0.0171557
6 *81:7 0.0171557
7 *81:5 0.0275854
8 *81:5 *283:17 0
9 *81:5 *299:121 0
10 *81:13 *100:5 0
11 *45:9 io_oeb[21] 0.000750312
*RES
1 la_oenb[21] *81:5 623.365 
2 *81:5 *81:7 8 
3 *81:7 *81:9 55.9552 
4 *81:9 *81:11 8 
5 *81:11 *81:13 2998.99 
6 *81:13 io_oeb[21] 40.4853 
*END

*D_NET *82 0.432819
*CONN
*P io_oeb[22] O
*P la_oenb[22] I
*CAP
1 io_oeb[22] 0.156354
2 la_oenb[22] 0.00138939
3 *82:11 0.156354
4 *82:9 0.0217668
5 *82:7 0.0231562
6 *82:7 *238:23 0
7 *82:9 *83:9 0.0671769
8 *82:9 *194:9 0.00662309
*RES
1 la_oenb[22] *82:7 32.0182 
2 *82:7 *82:9 124.391 
3 *82:9 *82:11 8 
4 *82:11 io_oeb[22] 3617.99 
*END

*D_NET *83 0.471903
*CONN
*P io_oeb[23] O
*P la_oenb[23] I
*CAP
1 io_oeb[23] 0.156394
2 la_oenb[23] 0.00134884
3 *83:11 0.156394
4 *83:9 0.0397345
5 *83:7 0.0410834
6 *83:7 *285:25 0
7 *83:9 *194:9 0
8 *83:9 *205:9 0.000686654
9 *83:9 *227:9 0.00908523
10 *83:9 *283:23 0
11 *83:9 *284:31 0
12 *82:9 *83:9 0.0671769
*RES
1 la_oenb[23] *83:7 31.3139 
2 *83:7 *83:9 188.276 
3 *83:9 *83:11 8 
4 *83:11 io_oeb[23] 3618.69 
*END

*D_NET *84 0.413285
*CONN
*P io_oeb[24] O
*P la_oenb[24] I
*CAP
1 io_oeb[24] 0.00846706
2 la_oenb[24] 0.00356792
3 *84:13 0.152496
4 *84:11 0.144029
5 *84:9 0.0505786
6 *84:7 0.0505786
7 *84:5 0.00356792
8 *84:9 *85:9 0
*RES
1 la_oenb[24] *84:5 73.3182 
2 *84:5 *84:7 8 
3 *84:7 *84:9 171.532 
4 *84:9 *84:11 8 
5 *84:11 *84:13 3333.53 
6 *84:13 io_oeb[24] 35.4624 
*END

*D_NET *85 0.392774
*CONN
*P io_oeb[25] O
*P la_oenb[25] I
*CAP
1 io_oeb[25] 0.00448019
2 la_oenb[25] 0.00386632
3 *85:13 0.136539
4 *85:11 0.132059
5 *85:9 0.0559822
6 *85:7 0.0559822
7 *85:5 0.00386632
8 *85:5 *287:17 0
9 *85:9 *86:9 0
10 *85:13 *133:27 0
11 *84:9 *85:9 0
*RES
1 la_oenb[25] *85:5 80.3611 
2 *85:5 *85:7 8 
3 *85:7 *85:9 187.675 
4 *85:9 *85:11 8 
5 *85:11 *85:13 3056.75 
6 *85:13 io_oeb[25] 22.5824 
*END

*D_NET *86 0.374786
*CONN
*P io_oeb[26] O
*P la_oenb[26] I
*CAP
1 io_oeb[26] 0.00521093
2 la_oenb[26] 0.0033532
3 *86:13 0.1253
4 *86:11 0.120089
5 *86:9 0.0567707
6 *86:7 0.0567707
7 *86:5 0.0033532
8 *86:5 *464:13 0.00393849
9 *86:9 *89:9 0
10 *85:9 *86:9 0
*RES
1 la_oenb[26] *86:5 87.4039 
2 *86:5 *86:7 8 
3 *86:7 *86:9 188.447 
4 *86:9 *86:11 8 
5 *86:11 *86:13 2779.26 
6 *86:13 io_oeb[26] 25.1584 
*END

*D_NET *87 0.350324
*CONN
*P io_oeb[27] O
*P la_oenb[27] I
*CAP
1 io_oeb[27] 0.00918168
2 la_oenb[27] 0.00475747
3 *87:13 0.116988
4 *87:11 0.107806
5 *87:9 0.0534166
6 *87:7 0.0534166
7 *87:5 0.00475747
8 *87:9 *89:9 0
*RES
1 la_oenb[27] *87:5 101.49 
2 *87:5 *87:7 8 
3 *87:7 *87:9 178.83 
4 *87:9 *87:11 8 
5 *87:11 *87:13 2495.43 
6 *87:13 io_oeb[27] 38.0384 
*END

*D_NET *88 0.329343
*CONN
*P io_oeb[28] O
*P la_oenb[28] I
*CAP
1 io_oeb[28] 0.0188155
2 la_oenb[28] 0.0053696
3 *88:15 0.0188155
4 *88:13 0.0955054
5 *88:11 0.0955054
6 *88:9 0.044981
7 *88:7 0.044981
8 *88:5 0.0053696
9 *88:5 *299:197 0
*RES
1 la_oenb[28] *88:5 115.575 
2 *88:5 *88:7 8 
3 *88:7 *88:9 148.691 
4 *88:9 *88:11 8 
5 *88:11 *88:13 2210.9 
6 *88:13 *88:15 8 
7 *88:15 io_oeb[28] 63.5264 
*END

*D_NET *89 0.307819
*CONN
*P io_oeb[29] O
*P la_oenb[29] I
*CAP
1 io_oeb[29] 0.00988325
2 la_oenb[29] 0.00445759
3 *89:13 0.0946602
4 *89:11 0.0847769
5 *89:9 0.0547666
6 *89:7 0.0547666
7 *89:5 0.00445759
8 *89:9 *299:185 5.07439e-05
9 *86:9 *89:9 0
10 *87:9 *89:9 0
*RES
1 la_oenb[29] *89:5 94.4468 
2 *89:5 *89:7 8 
3 *89:7 *89:9 182.866 
4 *89:9 *89:11 8 
5 *89:11 *89:13 1962.29 
6 *89:13 io_oeb[29] 40.6144 
*END

*D_NET *90 0.304615
*CONN
*P io_oeb[2] O
*P la_oenb[2] I
*CAP
1 io_oeb[2] 0.125234
2 la_oenb[2] 0.00214084
3 *90:15 0.125234
4 *90:13 0.0235463
5 *90:11 0.0244912
6 *90:7 0.00308571
7 io_oeb[2] *308:117 0
8 *90:11 *134:13 0.000441899
9 *90:11 *464:9 0.000441899
*RES
1 la_oenb[2] *90:7 48.9211 
2 *90:7 *90:11 12.5211 
3 *90:11 *90:13 541.741 
4 *90:13 *90:15 8 
5 *90:15 io_oeb[2] 413.948 
*END

*D_NET *91 0.287666
*CONN
*P io_oeb[30] O
*P la_oenb[30] I
*CAP
1 io_oeb[30] 0.0065431
2 la_oenb[30] 0.00570587
3 *91:13 0.0783991
4 *91:11 0.071856
5 *91:9 0.0597281
6 *91:7 0.0597281
7 *91:5 0.00570587
8 *91:5 *299:205 0
*RES
1 la_oenb[30] *91:5 123.323 
2 *91:5 *91:7 8 
3 *91:7 *91:9 197.807 
4 *91:9 *91:11 8 
5 *91:11 *91:13 1663.67 
6 *91:13 io_oeb[30] 29.0224 
*END

*D_NET *92 0.265921
*CONN
*P io_oeb[31] O
*P la_oenb[31] I
*CAP
1 io_oeb[31] 0.0377533
2 la_oenb[31] 0.00948269
3 *92:15 0.0377533
4 *92:13 0.0564824
5 *92:11 0.0564824
6 *92:9 0.0291421
7 *92:7 0.0291421
8 *92:5 0.00948269
9 *92:9 *104:9 0
10 *92:9 *299:165 0.000200057
*RES
1 la_oenb[31] *92:5 208.541 
2 *92:5 *92:7 8 
3 *92:7 *92:9 96.7419 
4 *92:9 *92:11 8 
5 *92:11 *92:13 1308 
6 *92:13 *92:15 8 
7 *92:15 io_oeb[31] 125.35 
*END

*D_NET *93 0.246625
*CONN
*P io_oeb[32] O
*P la_oenb[32] I
*CAP
1 io_oeb[32] 0.000989001
2 la_oenb[32] 0.00632171
3 *93:13 0.0488926
4 *93:11 0.0479036
5 *93:9 0.0674279
6 *93:7 0.0674279
7 *93:5 0.00632171
8 *93:13 io_out[32] 0.00117956
9 *93:13 io_out[33] 0.00016095
*RES
1 la_oenb[32] *93:5 137.408 
2 *93:5 *93:7 8 
3 *93:7 *93:9 222.451 
4 *93:9 *93:11 8 
5 *93:11 *93:13 1109.4 
6 *93:13 io_oeb[32] 10.9904 
*END

*D_NET *94 0.225265
*CONN
*P io_oeb[33] O
*P la_oenb[33] I
*CAP
1 io_oeb[33] 0.0688844
2 la_oenb[33] 0.0391065
3 *94:7 0.0688844
4 *94:5 0.0391065
5 io_oeb[33] *308:77 0.000858942
6 *94:5 *296:197 0.00330816
7 *94:5 *308:95 0.005116
*RES
1 la_oenb[33] *94:5 976.213 
2 *94:5 *94:7 8 
3 *94:7 io_oeb[33] 228.648 
*END

*D_NET *95 0.199516
*CONN
*P io_oeb[34] O
*P la_oenb[34] I
*CAP
1 io_oeb[34] 0.068725
2 la_oenb[34] 0.0310332
3 *95:7 0.068725
4 *95:5 0.0310332
*RES
1 la_oenb[34] *95:5 706.471 
2 *95:5 *95:7 8 
3 *95:7 io_oeb[34] 231.997 
*END

*D_NET *96 0.18083
*CONN
*P io_oeb[35] O
*P la_oenb[35] I
*CAP
1 io_oeb[35] 0.0710363
2 la_oenb[35] 0.0193789
3 *96:7 0.0710363
4 *96:5 0.0193789
*RES
1 la_oenb[35] *96:5 436.73 
2 *96:5 *96:7 8 
3 *96:7 io_oeb[35] 235.346 
*END

*D_NET *97 0.165391
*CONN
*P io_oeb[36] O
*P la_oenb[36] I
*CAP
1 io_oeb[36] 0.0720739
2 la_oenb[36] 0.0106214
3 *97:7 0.0720739
4 *97:5 0.0106214
*RES
1 la_oenb[36] *97:5 233.895 
2 *97:5 *97:7 8 
3 *97:7 io_oeb[36] 238.609 
*END

*D_NET *98 0.173583
*CONN
*P io_oeb[37] O
*P la_oenb[37] I
*CAP
1 io_oeb[37] 0.0646147
2 la_oenb[37] 0.00176665
3 *98:7 0.0663814
4 io_oeb[37] *194:9 0
5 io_oeb[37] *299:205 0.00271022
6 io_oeb[37] *358:13 0.000875646
7 io_oeb[37] *464:9 0
8 *74:9 io_oeb[37] 0.00083543
9 *75:9 io_oeb[37] 0.0363986
*RES
1 la_oenb[37] *98:7 39.7654 
2 *98:7 io_oeb[37] 241.957 
*END

*D_NET *99 0.320416
*CONN
*P io_oeb[3] O
*P la_oenb[3] I
*CAP
1 io_oeb[3] 0.12562
2 la_oenb[3] 0.0345878
3 *99:7 0.12562
4 *99:5 0.0345878
*RES
1 la_oenb[3] *99:5 788.872 
2 *99:5 *99:7 8 
3 *99:7 io_oeb[3] 415.065 
*END

*D_NET *100 0.33807
*CONN
*P io_oeb[4] O
*P la_oenb[4] I
*CAP
1 io_oeb[4] 0.124671
2 la_oenb[4] 0.0434972
3 *100:7 0.124671
4 *100:5 0.0434972
5 io_oeb[4] *296:85 0.00152231
6 io_oeb[4] *308:71 0.000210781
7 *81:13 *100:5 0
*RES
1 la_oenb[4] *100:5 995.228 
2 *100:5 *100:7 8 
3 *100:7 io_oeb[4] 411.716 
*END

*D_NET *101 0.354284
*CONN
*P io_oeb[5] O
*P la_oenb[5] I
*CAP
1 io_oeb[5] 0.0269852
2 la_oenb[5] 0.00814618
3 *101:15 0.0269852
4 *101:13 0.0445023
5 *101:11 0.0445023
6 *101:9 0.0820085
7 *101:7 0.0820085
8 *101:5 0.00814618
9 *101:9 *299:177 0.00029936
10 io_oeb[0] *101:9 0.0307
11 *73:9 *101:9 0
*RES
1 la_oenb[5] *101:5 173.327 
2 *101:5 *101:7 8 
3 *101:7 *101:9 317.849 
4 *101:9 *101:11 8 
5 *101:11 *101:13 1028.4 
6 *101:13 *101:15 8 
7 *101:15 io_oeb[5] 90.6603 
*END

*D_NET *102 0.368952
*CONN
*P io_oeb[6] O
*P la_oenb[6] I
*CAP
1 io_oeb[6] 0.0442655
2 la_oenb[6] 0.00878212
3 *102:15 0.0442655
4 *102:13 0.052772
5 *102:11 0.052772
6 *102:9 0.0785732
7 *102:7 0.0785732
8 *102:5 0.00878212
9 *102:9 *103:9 0
10 *102:9 *299:177 0.000166851
11 *73:9 *102:9 0
*RES
1 la_oenb[6] *102:5 187.413 
2 *102:5 *102:7 8 
3 *102:7 *102:9 257.828 
4 *102:9 *102:11 8 
5 *102:11 *102:13 1220.67 
6 *102:13 *102:15 8 
7 *102:15 io_oeb[6] 147.332 
*END

*D_NET *103 0.39244
*CONN
*P io_oeb[7] O
*P la_oenb[7] I
*CAP
1 io_oeb[7] 0.0412824
2 la_oenb[7] 0.008918
3 *103:15 0.0412824
4 *103:13 0.0643526
5 *103:11 0.0643526
6 *103:9 0.0804739
7 *103:7 0.0804739
8 *103:5 0.008918
9 *103:5 *144:15 0
10 *103:5 *344:23 0
11 *103:9 *104:9 0
12 *103:9 *299:177 0.000165373
13 *103:13 *141:11 0.00222038
14 *102:9 *103:9 0
*RES
1 la_oenb[7] *103:5 194.455 
2 *103:5 *103:7 8 
3 *103:7 *103:9 264.869 
4 *103:9 *103:11 8 
5 *103:11 *103:13 1488.3 
6 *103:13 *103:15 8 
7 *103:15 io_oeb[7] 137.028 
*END

*D_NET *104 0.408622
*CONN
*P io_oeb[8] O
*P la_oenb[8] I
*CAP
1 io_oeb[8] 0.0363828
2 la_oenb[8] 0.0092365
3 *104:15 0.0363828
4 *104:13 0.0760111
5 *104:11 0.0760111
6 *104:9 0.0826804
7 *104:7 0.0826804
8 *104:5 0.0092365
9 *104:5 *282:37 0
10 *104:13 la_data_out[91] 0
11 *92:9 *104:9 0
12 *103:9 *104:9 0
*RES
1 la_oenb[8] *104:5 201.498 
2 *104:5 *104:7 8 
3 *104:7 *104:9 274.4 
4 *104:9 *104:11 8 
5 *104:11 *104:13 1756.63 
6 *104:13 *104:15 8 
7 *104:15 io_oeb[8] 124.148 
*END

*D_NET *105 0.435698
*CONN
*P io_oeb[9] O
*P la_oenb[9] I
*CAP
1 io_oeb[9] 0.0359902
2 la_oenb[9] 0.00980105
3 *105:15 0.0359902
4 *105:13 0.087268
5 *105:11 0.087268
6 *105:9 0.0837155
7 *105:7 0.0837155
8 *105:5 0.00980105
9 *105:5 *260:15 0.000381166
10 *105:5 *364:17 0
11 *105:9 *299:165 6.53257e-05
12 *105:9 *308:133 0
13 *105:9 *317:117 0.00170256
*RES
1 la_oenb[9] *105:5 216.288 
2 *105:5 *105:7 8 
3 *105:7 *105:9 275.001 
4 *105:9 *105:11 8 
5 *105:11 *105:13 2017.22 
6 *105:13 *105:15 8 
7 *105:15 io_oeb[9] 120.284 
*END

*D_NET *106 0.286366
*CONN
*P io_out[0] O
*I *537:rf_dac_i_out[0] O *D phase_099_top_integration
*CAP
1 io_out[0] 0.0433041
2 *537:rf_dac_i_out[0] 0.00444271
3 *106:11 0.0433041
4 *106:9 0.0945828
5 *106:7 0.0990255
6 *106:7 *108:7 0.0014246
7 *106:9 *108:9 0.00028182
8 *106:9 *138:9 0
*RES
1 *537:rf_dac_i_out[0] *106:7 23.484 
2 *106:7 *106:9 327.036 
3 *106:9 *106:11 8 
4 *106:11 io_out[0] 144.799 
*END

*D_NET *107 0.15319
*CONN
*P io_out[10] O
*I *537:rf_dac_i_out[10] O *D phase_099_top_integration
*CAP
1 io_out[10] 0.00192859
2 *537:rf_dac_i_out[10] 0.0441821
3 *107:9 0.0295209
4 *107:7 0.0275923
5 *107:5 0.0441821
6 *107:5 *108:7 0.00144027
7 *107:5 *143:7 0.0031893
8 *67:15 io_out[10] 0.00115464
*RES
1 *537:rf_dac_i_out[10] *107:5 153.214 
2 *107:5 *107:7 8 
3 *107:7 *107:9 95.7637 
4 *107:9 io_out[10] 15.308 
*END

*D_NET *108 0.181336
*CONN
*P io_out[11] O
*I *537:rf_dac_i_out[11] O *D phase_099_top_integration
*CAP
1 io_out[11] 0.043283
2 *537:rf_dac_i_out[11] 0.0038524
3 *108:11 0.043283
4 *108:9 0.0419595
5 *108:7 0.0458119
6 *106:7 *108:7 0.0014246
7 *106:9 *108:9 0.00028182
8 *107:5 *108:7 0.00144027
*RES
1 *537:rf_dac_i_out[11] *108:7 23.6557 
2 *108:7 *108:9 144.76 
3 *108:9 *108:11 8 
4 *108:11 io_out[11] 144.627 
*END

*D_NET *109 0.20788
*CONN
*P io_out[12] O
*I *537:rf_dac_i_out[12] O *D phase_099_top_integration
*CAP
1 io_out[12] 0.0426057
2 *537:rf_dac_i_out[12] 0.00586729
3 *109:11 0.0426057
4 *109:9 0.0554671
5 *109:7 0.0613344
*RES
1 *537:rf_dac_i_out[12] *109:7 26.06 
2 *109:7 *109:9 191.852 
3 *109:9 *109:11 8 
4 *109:11 io_out[12] 142.223 
*END

*D_NET *110 0.233993
*CONN
*P io_out[13] O
*I *537:rf_dac_i_out[13] O *D phase_099_top_integration
*CAP
1 io_out[13] 0.0401917
2 *537:rf_dac_i_out[13] 0.00637926
3 *110:11 0.0401917
4 *110:9 0.0693295
5 *110:7 0.0757088
6 *110:7 *111:5 0.00219169
*RES
1 *537:rf_dac_i_out[13] *110:7 31.212 
2 *110:7 *110:9 238.945 
3 *110:9 *110:11 8 
4 *110:11 io_out[13] 137.071 
*END

*D_NET *111 0.267647
*CONN
*P io_out[14] O
*I *537:rf_dac_i_out[14] O *D phase_099_top_integration
*CAP
1 io_out[14] 0.0213282
2 *537:rf_dac_i_out[14] 0.026169
3 *111:11 0.0213282
4 *111:9 0.0851404
5 *111:7 0.0851404
6 *111:5 0.026169
7 *111:5 *112:5 0
8 *111:5 *337:7 0.000180393
9 *110:7 *111:5 0.00219169
*RES
1 *537:rf_dac_i_out[14] *111:5 88.8141 
2 *111:5 *111:7 8 
3 *111:7 *111:9 287.814 
4 *111:9 *111:11 8 
5 *111:11 io_out[14] 71.4691 
*END

*D_NET *112 0.221287
*CONN
*P io_out[15] O
*I *537:rf_dac_i_out[15] O *D phase_099_top_integration
*CAP
1 io_out[15] 0.0678015
2 *537:rf_dac_i_out[15] 0.0195045
3 *112:15 0.0678015
4 *112:13 0.0178703
5 *112:11 0.0178703
6 *112:9 0.00537707
7 *112:7 0.00537707
8 *112:5 0.0195045
9 *112:5 *337:7 0.000180393
10 *111:5 *112:5 0
*RES
1 *537:rf_dac_i_out[15] *112:5 63.1829 
2 *112:5 *112:7 8 
3 *112:7 *112:9 124.099 
4 *112:9 *112:11 8 
5 *112:11 *112:13 59.7333 
6 *112:13 *112:15 8 
7 *112:15 io_out[15] 1567.81 
*END

*D_NET *113 0.206437
*CONN
*P io_out[16] O
*I *537:rf_dac_q_out[0] O *D phase_099_top_integration
*CAP
1 io_out[16] 0.000657868
2 *537:rf_dac_q_out[0] 1.28542e-05
3 *113:11 0.0298791
4 *113:9 0.0292213
5 *113:7 0.0514068
6 *113:5 0.0514197
7 *113:7 *322:17 0.000138727
8 io_oeb[17] *113:11 0.00699588
9 *36:9 *113:11 0.0357932
10 *62:19 *113:7 0.0001745
11 *77:25 *113:11 0.000737324
*RES
1 *537:rf_dac_q_out[0] *113:5 0.310714 
2 *113:5 *113:7 1185.46 
3 *113:7 *113:9 8 
4 *113:9 *113:11 137.614 
5 *113:11 io_out[16] 22.8625 
*END

*D_NET *114 0.165354
*CONN
*P io_out[17] O
*I *537:rf_dac_q_out[1] O *D phase_099_top_integration
*CAP
1 io_out[17] 0.00146304
2 *537:rf_dac_q_out[1] 0.00120893
3 *114:17 0.0516362
4 *114:15 0.0501731
5 *114:13 0.0190445
6 *114:11 0.0202534
7 *114:11 *115:11 0
8 *114:13 *115:11 0
9 *114:13 *323:13 0
10 *114:13 *331:11 0.00437404
11 *37:9 io_out[17] 0.000211676
12 *76:21 *114:17 0.0169896
*RES
1 *537:rf_dac_q_out[1] *114:11 29.2943 
2 *114:11 *114:13 69.0069 
3 *114:13 *114:15 8 
4 *114:15 *114:17 1162.22 
5 *114:17 io_out[17] 37.48 
*END

*D_NET *115 0.11153
*CONN
*P io_out[18] O
*I *537:rf_dac_q_out[2] O *D phase_099_top_integration
*CAP
1 io_out[18] 0.00147531
2 *537:rf_dac_q_out[2] 0.00431819
3 *115:15 0.0513399
4 *115:13 0.0498646
5 *115:11 0.00431819
6 *37:9 io_out[18] 0.000213695
7 *114:11 *115:11 0
8 *114:13 *115:11 0
*RES
1 *537:rf_dac_q_out[2] *115:11 44.483 
2 *115:11 *115:13 8 
3 *115:13 *115:15 1155.17 
4 *115:15 io_out[18] 37.48 
*END

*D_NET *116 0.149623
*CONN
*P io_out[19] O
*I *537:rf_dac_q_out[3] O *D phase_099_top_integration
*CAP
1 io_out[19] 0.0509488
2 *537:rf_dac_q_out[3] 0.00130308
3 *116:13 0.0509488
4 *116:11 0.00950115
5 *116:9 0.0108042
6 *116:9 *118:9 0
7 *116:11 *118:11 0.0261168
*RES
1 *537:rf_dac_q_out[3] *116:9 31.49 
2 *116:9 *116:11 48.5707 
3 *116:11 *116:13 8 
4 *116:13 io_out[19] 1179.05 
*END

*D_NET *117 0.257769
*CONN
*P io_out[1] O
*I *537:rf_dac_i_out[1] O *D phase_099_top_integration
*CAP
1 io_out[1] 0.0322221
2 *537:rf_dac_i_out[1] 0.0163447
3 *117:11 0.0322221
4 *117:9 0.0803178
5 *117:7 0.0803178
6 *117:5 0.0163447
*RES
1 *537:rf_dac_i_out[1] *117:5 52.7501 
2 *117:5 *117:7 8 
3 *117:7 *117:9 277.786 
4 *117:9 *117:11 8 
5 *117:11 io_out[1] 107.533 
*END

*D_NET *118 0.221369
*CONN
*P io_out[20] O
*I *537:rf_dac_q_out[4] O *D phase_099_top_integration
*CAP
1 io_out[20] 0.0510023
2 *537:rf_dac_q_out[4] 0.00117705
3 *118:13 0.0510023
4 *118:11 0.0163788
5 *118:9 0.0175559
6 *118:11 *119:11 0.058136
7 *116:9 *118:9 0
8 *116:11 *118:11 0.0261168
*RES
1 *537:rf_dac_q_out[4] *118:9 29.3564 
2 *118:9 *118:11 108.763 
3 *118:11 *118:13 8 
4 *118:13 io_out[20] 1179.75 
*END

*D_NET *119 0.296504
*CONN
*P io_out[21] O
*I *537:rf_dac_q_out[5] O *D phase_099_top_integration
*CAP
1 io_out[21] 0.0509556
2 *537:rf_dac_q_out[5] 0.00120737
3 *119:13 0.0509556
4 *119:11 0.0219134
5 *119:9 0.0231208
6 *119:11 *120:11 0.0902153
7 *119:11 *323:13 0
8 *118:11 *119:11 0.058136
*RES
1 *537:rf_dac_q_out[5] *119:9 29.605 
2 *119:9 *119:11 167.925 
3 *119:11 *119:13 8 
4 *119:13 io_out[21] 1180.46 
*END

*D_NET *120 0.373714
*CONN
*P io_out[22] O
*I *537:rf_dac_q_out[6] O *D phase_099_top_integration
*CAP
1 io_out[22] 0.0523738
2 *537:rf_dac_q_out[6] 0.0012071
3 *120:13 0.0523738
4 *120:11 0.027273
5 *120:9 0.0284801
6 *120:11 *121:11 0.121791
7 *120:11 *323:13 0
8 *119:11 *120:11 0.0902153
*RES
1 *537:rf_dac_q_out[6] *120:9 29.3771 
2 *120:9 *120:11 227.259 
3 *120:11 *120:13 8 
4 *120:13 io_out[22] 1181.16 
*END

*D_NET *121 0.356613
*CONN
*P io_out[23] O
*I *537:rf_dac_q_out[7] O *D phase_099_top_integration
*CAP
1 io_out[23] 0.052416
2 *537:rf_dac_q_out[7] 0.00117344
3 *121:13 0.052416
4 *121:11 0.057808
5 *121:9 0.0589814
6 *121:11 *129:13 0.0120267
7 *121:11 *132:13 0
8 *121:11 *323:13 0
9 *64:19 *121:9 0
10 *120:11 *121:11 0.121791
*RES
1 *537:rf_dac_q_out[7] *121:9 28.1964 
2 *121:9 *121:11 285.477 
3 *121:11 *121:13 8 
4 *121:13 io_out[23] 1181.86 
*END

*D_NET *122 0.273308
*CONN
*P io_out[24] O
*I *537:rf_dac_q_out[8] O *D phase_099_top_integration
*CAP
1 io_out[24] 0.0907225
2 *537:rf_dac_q_out[8] 1.28542e-05
3 *122:9 0.0907225
4 *122:7 0.0448938
5 *122:5 0.0449067
6 *122:7 *123:7 0
7 *122:7 *129:11 0
8 *35:5 io_out[24] 0.00204922
*RES
1 *537:rf_dac_q_out[8] *122:5 0.310714 
2 *122:5 *122:7 1032.63 
3 *122:7 *122:9 8 
4 *122:9 io_out[24] 305.842 
*END

*D_NET *123 0.245514
*CONN
*P io_out[25] O
*I *537:rf_dac_q_out[9] O *D phase_099_top_integration
*CAP
1 io_out[25] 0.0894874
2 *537:rf_dac_q_out[9] 1.28542e-05
3 *123:9 0.0894874
4 *123:7 0.0332565
5 *123:5 0.0332694
6 *122:7 *123:7 0
*RES
1 *537:rf_dac_q_out[9] *123:5 0.310714 
2 *123:5 *123:7 762.886 
3 *123:7 *123:9 8 
4 *123:9 io_out[25] 305.241 
*END

*D_NET *124 0.226695
*CONN
*P io_out[26] O
*I *537:rf_dac_q_out[10] O *D phase_099_top_integration
*CAP
1 io_out[26] 0.0911275
2 *537:rf_dac_q_out[10] 1.37495e-05
3 *124:9 0.0911275
4 *124:7 0.0220889
5 *124:5 0.0221027
6 *124:7 *272:9 0.000234461
*RES
1 *537:rf_dac_q_out[10] *124:5 0.310714 
2 *124:5 *124:7 492.441 
3 *124:7 *124:9 8 
4 *124:9 io_out[26] 304.039 
*END

*D_NET *125 0.19743
*CONN
*P io_out[27] O
*I *537:rf_dac_q_out[11] O *D phase_099_top_integration
*CAP
1 io_out[27] 0.0887147
2 *537:rf_dac_q_out[11] 1.28542e-05
3 *125:9 0.0887147
4 *125:7 0.00989458
5 *125:5 0.00990743
6 *125:7 *126:9 0.000185971
7 *125:7 *318:9 0
*RES
1 *537:rf_dac_q_out[11] *125:5 0.310714 
2 *125:5 *125:7 222.699 
3 *125:7 *125:9 8 
4 *125:9 io_out[27] 302.236 
*END

*D_NET *126 0.283055
*CONN
*P io_out[28] O
*I *537:rf_dac_q_out[12] O *D phase_099_top_integration
*CAP
1 io_out[28] 0.0488621
2 *537:rf_dac_q_out[12] 0.000611173
3 *126:17 0.0488621
4 *126:15 0.000927398
5 *126:13 0.000927398
6 *126:11 0.0193541
7 *126:9 0.0199653
8 *126:11 *272:11 0.0217949
9 *126:11 *277:11 0.0148937
10 *126:11 *279:11 0.0469799
11 *126:11 *289:11 0.00406904
12 *126:11 *290:11 5.24719e-05
13 *126:11 *291:11 0.00670137
14 *126:11 *317:17 0.00088096
15 *126:11 *333:11 0.0084153
16 *126:11 *363:17 0.00328952
17 *126:11 *363:19 0.000919152
18 *126:15 *277:15 0.00445808
19 *126:15 *286:15 0.00109359
20 *126:15 *333:21 0.00132512
21 *537:rf_adc_i_in[4] *126:11 0.00250577
22 *537:rf_adc_i_in[9] *126:11 0.000772118
23 *30:21 *126:11 0.0039473
24 *37:13 *126:15 0.000605057
25 *41:21 *126:11 0.00398625
26 *52:21 *126:11 0.0039386
27 *61:29 *126:11 0.00484696
28 *64:23 *126:11 0.00788462
29 *125:7 *126:9 0.000185971
*RES
1 *537:rf_dac_q_out[12] *126:9 19.0407 
2 *126:9 *126:11 141.221 
3 *126:11 *126:13 8 
4 *126:13 *126:15 57.1921 
5 *126:15 *126:17 8 
6 *126:17 io_out[28] 161.329 
*END

*D_NET *127 0.278265
*CONN
*P io_out[29] O
*I *537:rf_dac_q_out[13] O *D phase_099_top_integration
*CAP
1 io_out[29] 0.0426379
2 *537:rf_dac_q_out[13] 0.00110063
3 *127:22 0.0426379
4 *127:20 0.0135408
5 *127:18 0.0135408
6 *127:16 0.0261957
7 *127:14 0.0272964
8 *127:14 *312:9 0.00116531
9 *127:14 *340:6 0.00235074
10 *127:16 *130:8 0.000654743
11 *127:16 *130:10 0.0787595
12 *127:16 *308:21 0
13 *127:16 *325:18 0.028384
14 *127:16 *333:25 0
*RES
1 *537:rf_dac_q_out[13] *127:14 29.4357 
2 *127:14 *127:16 154.401 
3 *127:16 *127:18 8 
4 *127:18 *127:20 312.848 
5 *127:20 *127:22 8 
6 *127:22 io_out[29] 144.67 
*END

*D_NET *128 0.23473
*CONN
*P io_out[2] O
*I *537:rf_dac_i_out[2] O *D phase_099_top_integration
*CAP
1 io_out[2] 0.0329441
2 *537:rf_dac_i_out[2] 0.0156253
3 *128:11 0.0329441
4 *128:9 0.0687957
5 *128:7 0.0687957
6 *128:5 0.0156253
7 *128:5 *142:11 0
*RES
1 *537:rf_dac_i_out[2] *128:5 50.1741 
2 *128:5 *128:7 8 
3 *128:7 *128:9 237.421 
4 *128:9 *128:11 8 
5 *128:11 io_out[2] 110.109 
*END

*D_NET *129 0.275932
*CONN
*P io_out[30] O
*I *537:rf_dac_q_out[14] O *D phase_099_top_integration
*CAP
1 io_out[30] 0.0411393
2 *537:rf_dac_q_out[14] 0.000947533
3 *129:19 0.0411393
4 *129:17 0.0260845
5 *129:15 0.0260845
6 *129:13 0.0331652
7 *129:11 0.0341127
8 *129:11 *274:9 8.99927e-05
9 *129:13 *132:13 0.0269964
10 *129:13 *323:13 0.0341458
11 *121:11 *129:13 0.0120267
12 *122:7 *129:11 0
*RES
1 *537:rf_dac_q_out[14] *129:11 24.5714 
2 *129:11 *129:13 169.471 
3 *129:13 *129:15 8 
4 *129:15 *129:17 602.309 
5 *129:17 *129:19 8 
6 *129:19 io_out[30] 136.942 
*END

*D_NET *130 0.319442
*CONN
*P io_out[31] O
*I *537:rf_dac_q_out[15] O *D phase_099_top_integration
*CAP
1 io_out[31] 0.00126894
2 *537:rf_dac_q_out[15] 0.00209924
3 *130:14 0.0382093
4 *130:12 0.0369404
5 *130:10 0.066857
6 *130:8 0.0689562
7 *130:8 *325:18 0.0010027
8 *130:8 *338:18 0.001307
9 *130:10 *299:17 0.0101066
10 *130:10 *325:16 0.00291737
11 *130:10 *333:25 0
12 *130:10 *338:10 0.000607291
13 *130:10 *340:6 0.000708222
14 *130:10 *344:19 0
15 *537:rf_adc_i_in[7] *130:10 0.000848734
16 *66:13 *130:10 0.000392042
17 *67:17 *130:8 0.00681062
18 *67:17 *130:10 0.000996457
19 *127:16 *130:8 0.000654743
20 *127:16 *130:10 0.0787595
*RES
1 *537:rf_dac_q_out[15] *130:8 21.2459 
2 *130:8 *130:10 290.5 
3 *130:10 *130:12 8 
4 *130:12 *130:14 853.739 
5 *130:14 io_out[31] 12.2784 
*END

*D_NET *131 0.355937
*CONN
*P io_out[32] O
*I *537:chip_ready_out O *D phase_099_top_integration
*CAP
1 io_out[32] 0.00628968
2 *537:chip_ready_out 0.000991141
3 *131:13 0.11936
4 *131:11 0.11307
5 *131:9 0.0209909
6 *131:7 0.0219821
7 *131:7 *282:7 8.61573e-05
8 *131:7 *364:7 0
9 *131:9 la_data_out[81] 0.00646705
10 *131:9 *304:15 0.00752751
11 *131:9 *312:13 0.00481467
12 *131:9 *318:23 0.00481467
13 *131:9 *321:22 0.00587392
14 *131:9 *323:25 0.00861566
15 *131:9 *325:22 0.00861566
16 *131:9 *337:9 0.00481467
17 *131:9 *338:30 0.0151438
18 *131:9 *364:9 0.00481467
19 *131:13 *281:33 0
20 *131:13 *286:33 0
21 *131:13 *316:19 0
22 *131:13 *318:29 0.000348649
23 *537:rf_adc_q_in[14] *131:13 0.000136151
24 *78:21 *131:13 0
25 *80:23 *131:13 0
26 *93:13 io_out[32] 0.00117956
*RES
1 *537:chip_ready_out *131:7 10.0888 
2 *131:7 *131:9 94.7483 
3 *131:9 *131:11 8 
4 *131:11 *131:13 383.365 
5 *131:13 io_out[32] 37.7896 
*END

*D_NET *132 0.528594
*CONN
*P io_out[33] O
*P la_data_out[0] O
*P wbs_dat_o[0] O
*I *537:module_status_flags_out[0] O *D phase_099_top_integration
*CAP
1 io_out[33] 0.00106299
2 la_data_out[0] 0.000253028
3 wbs_dat_o[0] 0.000578446
4 *537:module_status_flags_out[0] 0.000862584
5 *132:61 0.00282625
6 *132:59 0.00176326
7 *132:49 0.0102423
8 *132:47 0.0101304
9 *132:41 0.0130198
10 *132:39 0.0129058
11 *132:27 0.0453154
12 *132:25 0.0448693
13 *132:21 0.0250474
14 *132:19 0.0248878
15 *132:17 0.060914
16 *132:15 0.060914
17 *132:13 0.0377227
18 *132:11 0.0385853
19 *132:13 *136:11 0
20 *132:13 *272:11 0
21 *132:13 *286:11 0.0198268
22 *132:13 *289:11 0.00236706
23 *132:13 *290:11 0.000899237
24 *132:13 *323:13 0.0260297
25 *132:13 *329:11 0.0041536
26 *132:41 *133:45 0
27 *132:41 *133:47 0.0327442
28 *132:41 *134:37 0
29 *132:41 *273:29 0.00746965
30 *132:49 *144:11 0.00022031
31 *132:49 *273:29 0.00461089
32 *132:49 *274:23 0
33 *132:49 *282:49 0.00175926
34 *537:rf_adc_i_in[4] *132:13 0.000766131
35 *31:13 *132:13 0.0020931
36 *34:9 *132:11 0.000447959
37 *63:29 *132:13 0.00614798
38 *93:13 io_out[33] 0.00016095
39 *121:11 *132:13 0
40 *129:13 *132:13 0.0269964
*RES
1 *537:module_status_flags_out[0] *132:11 24.3643 
2 *132:11 *132:13 196.519 
3 *132:13 *132:15 8 
4 *132:15 *132:17 1410.12 
5 *132:17 *132:19 8 
6 *132:19 *132:21 84.4629 
7 *132:21 *132:25 11.4904 
8 *132:25 *132:27 1034.21 
9 *132:27 wbs_dat_o[0] 13.2054 
10 *132:27 *132:39 8.62143 
11 *132:39 *132:41 70.8101 
12 *132:41 *132:47 25.4339 
13 *132:47 *132:49 207.868 
14 *132:49 la_data_out[0] 20.5307 
15 *132:25 *132:59 15 
16 *132:59 *132:61 38.7357 
17 *132:61 io_out[33] 28.1581 
*END

*D_NET *133 0.411282
*CONN
*P la_data_out[1] O
*P wbs_dat_o[1] O
*P io_out[34] O
*I *537:module_status_flags_out[1] O *D phase_099_top_integration
*CAP
1 la_data_out[1] 0.000414276
2 wbs_dat_o[1] 0.000681268
3 io_out[34] 0.00433011
4 *537:module_status_flags_out[1] 0.000101937
5 *133:47 0.0126679
6 *133:45 0.0143492
7 *133:27 0.0357019
8 *133:25 0.0329251
9 *133:17 0.00476287
10 *133:13 0.0851105
11 *133:11 0.0846777
12 *133:9 0.0136408
13 *133:7 0.0137428
14 *133:9 la_data_out[54] 0.0115685
15 *133:13 *299:111 0.00208811
16 *133:45 *134:37 0.0010902
17 *133:47 *134:27 0.000196807
18 *133:47 *134:37 0.000554282
19 *133:47 *135:27 0.00124533
20 *133:47 *136:35 0.041749
21 *133:47 *272:27 0.00105067
22 *133:47 *273:29 0.00784924
23 *133:47 *274:23 0.00706469
24 *133:47 *276:23 0.000974611
25 *85:13 *133:27 0
26 *132:41 *133:45 0
27 *132:41 *133:47 0.0327442
*RES
1 *537:module_status_flags_out[1] *133:7 1.86429 
2 *133:7 *133:9 425.534 
3 *133:9 *133:11 8 
4 *133:11 *133:13 281.656 
5 *133:13 *133:17 1.56987 
6 *133:17 io_out[34] 13.8955 
7 *133:17 *133:25 8 
8 *133:25 *133:27 760.774 
9 *133:27 wbs_dat_o[1] 15.5046 
10 *133:27 *133:45 35.6569 
11 *133:45 *133:47 101.293 
12 *133:47 la_data_out[1] 16.5239 
*END

*D_NET *134 0.387714
*CONN
*P io_out[35] O
*P wbs_dat_o[2] O
*P la_data_out[2] O
*I *537:module_status_flags_out[2] O *D phase_099_top_integration
*CAP
1 io_out[35] 0.00560469
2 wbs_dat_o[2] 0.000687375
3 la_data_out[2] 0.000601534
4 *537:module_status_flags_out[2] 0.000101937
5 *134:51 0.0259382
6 *134:49 0.0213147
7 *134:37 0.00470223
8 *134:27 0.0129919
9 *134:25 0.00995821
10 *134:17 0.00231639
11 *134:13 0.0544426
12 *134:11 0.0527277
13 *134:9 0.0501745
14 *134:7 0.0502765
15 *134:13 *278:13 0
16 *134:13 *464:9 0
17 *134:27 wbs_dat_o[16] 0.00385925
18 *134:27 *135:27 0.0488874
19 *134:27 *135:37 0.000248458
20 *134:27 *136:43 0.000954401
21 *134:27 *272:41 0.00787001
22 *134:27 *275:41 0.00486922
23 *134:27 *278:23 0.0203804
24 *134:27 *322:35 0.000308401
25 *134:27 *333:37 0.000362228
26 *134:27 *344:29 0.000753754
27 *134:27 *355:39 0.000514356
28 *134:37 *135:37 0.00458404
29 *90:11 *134:13 0.000441899
30 *132:41 *134:37 0
31 *133:45 *134:37 0.0010902
32 *133:47 *134:27 0.000196807
33 *133:47 *134:37 0.000554282
*RES
1 *537:module_status_flags_out[2] *134:7 1.86429 
2 *134:7 *134:9 1154.47 
3 *134:9 *134:11 8 
4 *134:11 *134:13 173.678 
5 *134:13 *134:17 41.2464 
6 *134:17 la_data_out[2] 11.3411 
7 *134:17 *134:25 8 
8 *134:25 *134:27 91.8045 
9 *134:27 *134:37 23.3757 
10 *134:37 wbs_dat_o[2] 15.2768 
11 *134:37 *134:49 22.0607 
12 *134:49 *134:51 469.738 
13 *134:51 io_out[35] 26.4464 
*END

*D_NET *135 0.563552
*CONN
*P wbs_dat_o[3] O
*P io_out[36] O
*P la_data_out[3] O
*I *537:module_status_flags_out[3] O *D phase_099_top_integration
*CAP
1 wbs_dat_o[3] 0.000659243
2 io_out[36] 0.00693609
3 la_data_out[3] 0.000678
4 *537:module_status_flags_out[3] 0.000396006
5 *135:39 0.0197976
6 *135:37 0.0153718
7 *135:27 0.0117693
8 *135:25 0.00991826
9 *135:15 0.106329
10 *135:13 0.105651
11 *135:11 0.0173301
12 *135:9 0.0177261
13 la_data_out[3] *205:7 0
14 *135:11 *136:11 0.0832734
15 *135:11 *308:11 0.0502508
16 *135:11 *317:19 0.00465952
17 *135:11 *322:27 0.00596944
18 *135:11 *326:11 0.00595733
19 *135:15 *205:7 0
20 *135:27 *136:35 0.00783015
21 *135:27 *274:37 0.00294566
22 *135:27 *276:23 0.0292627
23 *135:27 *278:23 0.000825297
24 *135:37 *136:43 0.00409069
25 *135:37 *136:47 0.000337979
26 *135:37 *322:35 0.000620932
27 *537:rf_adc_i_in[9] *135:9 0
28 *133:47 *135:27 0.00124533
29 *134:27 *135:27 0.0488874
30 *134:27 *135:37 0.000248458
31 *134:37 *135:37 0.00458404
*RES
1 *537:module_status_flags_out[3] *135:9 14.5664 
2 *135:9 *135:11 157.965 
3 *135:11 *135:13 8 
4 *135:13 *135:15 2436.97 
5 *135:15 la_data_out[3] 12.6875 
6 *135:15 *135:25 8 
7 *135:25 *135:27 93.4789 
8 *135:27 *135:37 39.2112 
9 *135:37 *135:39 288.198 
10 *135:39 io_out[36] 30.3104 
11 *135:37 wbs_dat_o[3] 14.0754 
*END

*D_NET *136 0.59384
*CONN
*P wbs_dat_o[4] O
*P io_out[37] O
*P la_data_out[4] O
*I *537:module_status_flags_out[4] O *D phase_099_top_integration
*CAP
1 wbs_dat_o[4] 0.000670284
2 io_out[37] 0.000998754
3 la_data_out[4] 0.000597464
4 *537:module_status_flags_out[4] 0.000529785
5 *136:53 0.00718294
6 *136:51 0.00618419
7 *136:49 0.00380536
8 *136:47 0.00397684
9 *136:43 0.00406508
10 *136:35 0.011109
11 *136:33 0.00797496
12 *136:27 0.00154873
13 *136:25 0.00145943
14 *136:15 0.106355
15 *136:13 0.105757
16 *136:11 0.0251086
17 *136:9 0.0256384
18 *136:11 *272:11 0.0827789
19 *136:11 *281:11 0.00173284
20 *136:11 *326:11 0.0120573
21 *136:27 *275:29 0.00688194
22 *136:27 *276:23 0.00141209
23 *136:27 *282:39 0.00199435
24 *136:35 *272:27 0.00563525
25 *136:35 *274:37 0.00295334
26 *136:35 *276:23 0.0240675
27 *136:43 *322:35 0.000676704
28 *136:43 *344:29 0.00050139
29 *136:43 *355:39 0.000570451
30 *31:13 *136:11 0
31 *41:21 *136:11 0.000690273
32 *52:21 *136:11 0.000690273
33 *64:23 *136:11 0
34 *132:13 *136:11 0
35 *133:47 *136:35 0.041749
36 *134:27 *136:43 0.000954401
37 *135:11 *136:11 0.0832734
38 *135:27 *136:35 0.00783015
39 *135:37 *136:43 0.00409069
40 *135:37 *136:47 0.000337979
*RES
1 *537:module_status_flags_out[4] *136:9 16.2236 
2 *136:9 *136:11 196.004 
3 *136:11 *136:13 8 
4 *136:13 *136:15 2438.21 
5 *136:15 la_data_out[4] 11.2064 
6 *136:15 *136:25 15 
7 *136:25 *136:27 75.4207 
8 *136:27 *136:33 24.0254 
9 *136:33 *136:35 77.2501 
10 *136:35 *136:43 35.3849 
11 *136:43 *136:47 8.65707 
12 *136:47 *136:49 84.4832 
13 *136:49 *136:51 15 
14 *136:51 *136:53 128.781 
15 *136:53 io_out[37] 26.3115 
16 *136:43 wbs_dat_o[4] 22.1582 
*END

*D_NET *137 0.209413
*CONN
*P io_out[3] O
*I *537:rf_dac_i_out[3] O *D phase_099_top_integration
*CAP
1 io_out[3] 0.0290504
2 *537:rf_dac_i_out[3] 0.0195745
3 *137:11 0.0290504
4 *137:9 0.0560817
5 *137:7 0.0560817
6 *137:5 0.0195745
*RES
1 *537:rf_dac_i_out[3] *137:5 63.0541 
2 *137:5 *137:7 8 
3 *137:7 *137:9 193.883 
4 *137:9 *137:11 8 
5 *137:11 io_out[3] 97.2291 
*END

*D_NET *138 0.184543
*CONN
*P io_out[4] O
*I *537:rf_dac_i_out[4] O *D phase_099_top_integration
*CAP
1 io_out[4] 0.0438955
2 *537:rf_dac_i_out[4] 0.00456029
3 *138:11 0.0438955
4 *138:9 0.0435867
5 *138:7 0.048147
6 *138:7 *140:15 0
7 *138:7 *347:7 0.000457683
8 *106:9 *138:9 0
*RES
1 *537:rf_dac_i_out[4] *138:7 22.1101 
2 *138:7 *138:9 150.345 
3 *138:9 *138:11 8 
4 *138:11 io_out[4] 146.173 
*END

*D_NET *139 0.162568
*CONN
*P io_out[5] O
*I *537:rf_dac_i_out[5] O *D phase_099_top_integration
*CAP
1 io_out[5] 0.0384773
2 *537:rf_dac_i_out[5] 0.00931369
3 *139:11 0.0384773
4 *139:9 0.033493
5 *139:7 0.0428067
6 *139:7 *140:15 0
*RES
1 *537:rf_dac_i_out[5] *139:7 37.5661 
2 *139:7 *139:9 115.058 
3 *139:9 *139:11 8 
4 *139:11 io_out[5] 130.717 
*END

*D_NET *140 0.14207
*CONN
*P io_out[6] O
*I *537:rf_dac_i_out[6] O *D phase_099_top_integration
*CAP
1 io_out[6] 0.041928
2 *537:rf_dac_i_out[6] 0.00670848
3 *140:19 0.041928
4 *140:17 0.0223464
5 *140:15 0.0290549
6 *140:15 *329:15 0.000104065
7 *140:15 *338:30 0
8 *138:7 *140:15 0
9 *139:7 *140:15 0
*RES
1 *537:rf_dac_i_out[6] *140:15 44.2029 
2 *140:15 *140:17 77.1045 
3 *140:17 *140:19 8 
4 *140:19 io_out[6] 142.223 
*END

*D_NET *141 0.119148
*CONN
*P io_out[7] O
*I *537:rf_dac_i_out[7] O *D phase_099_top_integration
*CAP
1 io_out[7] 0.0413049
2 *537:rf_dac_i_out[7] 0.00726882
3 *141:11 0.0511948
4 *141:7 0.0171588
5 *103:13 *141:11 0.00222038
*RES
1 *537:rf_dac_i_out[7] *141:7 31.212 
2 *141:7 *141:11 42.5819 
3 *141:11 io_out[7] 137.071 
*END

*D_NET *142 0.103704
*CONN
*P io_out[8] O
*I *537:rf_dac_i_out[8] O *D phase_099_top_integration
*CAP
1 io_out[8] 0.0426633
2 *537:rf_dac_i_out[8] 0.0088833
3 *142:11 0.0515466
4 *66:5 *142:11 0.0006106
5 *128:5 *142:11 0
*RES
1 *537:rf_dac_i_out[8] *142:11 45.9208 
2 *142:11 io_out[8] 142.223 
*END

*D_NET *143 0.124668
*CONN
*P io_out[9] O
*I *537:rf_dac_i_out[9] O *D phase_099_top_integration
*CAP
1 io_out[9] 0.0380475
2 *537:rf_dac_i_out[9] 0.00905574
3 *143:11 0.0380475
4 *143:9 0.0136359
5 *143:7 0.0226917
6 *107:5 *143:7 0.0031893
*RES
1 *537:rf_dac_i_out[9] *143:7 41.516 
2 *143:7 *143:9 46.8944 
3 *143:9 *143:11 8 
4 *143:11 io_out[9] 126.767 
*END

*D_NET *144 0.449565
*CONN
*P la_data_out[98] O
*P la_data_in[0] I
*I *537:rst_n I *D phase_099_top_integration
*CAP
1 la_data_out[98] 0.000610531
2 la_data_in[0] 0.00396277
3 *537:rst_n 8.55248e-05
4 *144:39 0.0274745
5 *144:37 0.0270929
6 *144:21 0.0527047
7 *144:19 0.0526192
8 *144:17 0.00718153
9 *144:15 0.00733924
10 *144:11 0.00434937
11 *144:11 *183:9 0.00441215
12 *144:11 *273:29 0.0141397
13 *144:11 *280:33 0
14 *144:15 *260:15 2.75733e-06
15 *144:17 la_data_out[17] 0.000269381
16 *144:17 *155:9 0.00513237
17 *144:17 *216:17 0.0202638
18 *144:17 *238:17 0.00183313
19 *144:17 *260:17 0.000976024
20 *144:17 *260:25 0.00325522
21 *144:17 *275:29 0
22 *144:17 *278:23 0.00063269
23 *144:17 *279:43 0.00148323
24 *144:17 *279:45 0.0126849
25 *144:17 *282:31 0.00193963
26 *144:17 *282:39 0.000920197
27 *144:21 *289:23 0
28 *144:21 *296:109 0.00165133
29 *144:21 *299:165 0.000803434
30 *144:37 la_data_out[27] 0
31 *144:37 *260:25 5.38552e-05
32 *144:39 *155:9 0.0680943
33 *144:39 *166:9 0.127377
34 *103:5 *144:15 0
35 *132:49 *144:11 0.00022031
*RES
1 la_data_in[0] *144:11 47.9521 
2 *144:11 *144:15 21.3075 
3 *144:15 *144:17 350.796 
4 *144:17 *144:19 15 
5 *144:19 *144:21 1187.04 
6 *144:21 *537:rst_n 1.86429 
7 *144:17 *144:37 27.6089 
8 *144:37 *144:39 235.674 
9 *144:39 la_data_out[98] 17.9325 
*END

*D_NET *155 0.297032
*CONN
*P la_data_out[108] O
*P la_data_in[10] I
*CAP
1 la_data_out[108] 0.000653045
2 la_data_in[10] 0.00061977
3 *155:9 0.0455861
4 *155:7 0.0455529
5 *155:7 la_data_out[10] 0
6 *155:7 *272:15 0
7 *155:9 *166:9 0.0108292
8 *155:9 *192:9 0.0768347
9 *155:9 *216:17 0.0050375
10 *155:9 *238:17 0.00202301
11 *155:9 *249:9 0.0181638
12 *155:9 *249:17 0.00124476
13 *155:9 *278:21 0.000235919
14 *155:9 *278:23 0.0113495
15 *155:9 *287:29 0.00567523
16 *144:17 *155:9 0.00513237
17 *144:39 *155:9 0.0680943
*RES
1 la_data_in[10] *155:7 19.3411 
2 *155:7 *155:9 325.577 
3 *155:9 la_data_out[108] 19.3411 
*END

*D_NET *166 0.390008
*CONN
*P la_data_out[109] O
*P la_data_in[11] I
*CAP
1 la_data_out[109] 0.000548521
2 la_data_in[11] 0.000474082
3 *166:9 0.0348836
4 *166:7 0.0348092
5 *166:9 *175:9 0.000428933
6 *166:9 *177:9 0.000675889
7 *166:9 *178:9 0.00379863
8 *166:9 *182:9 0.161584
9 *166:9 *192:9 0.000322114
10 *166:9 *216:9 0.00120434
11 *166:9 *238:13 0.000347439
12 *166:9 *249:9 0.00536362
13 *166:9 *274:23 0.000360536
14 *166:9 *275:29 0.000723
15 *166:9 *276:21 0.000330576
16 *166:9 *276:23 0.00594735
17 *144:39 *166:9 0.127377
18 *155:9 *166:9 0.0108292
*RES
1 la_data_in[11] *166:7 17.2282 
2 *166:7 *166:9 325.491 
3 *166:9 la_data_out[109] 17.2282 
*END

*D_NET *175 0.484089
*CONN
*P la_data_out[110] O
*P la_data_in[12] I
*CAP
1 la_data_out[110] 0.000372174
2 la_data_in[12] 0.000306891
3 *175:9 0.0481501
4 *175:7 0.0480848
5 *175:9 *176:15 0.00174001
6 *175:9 *176:17 0.0345965
7 *175:9 *177:9 0.172349
8 *175:9 *179:9 0.0267871
9 *175:9 *180:15 0.00422196
10 *175:9 *180:17 0.0339921
11 *175:9 *181:9 0.0289746
12 *175:9 *183:9 0.0413299
13 *175:9 *184:9 0.00356155
14 *175:9 *216:9 0.00203632
15 *175:9 *271:17 0.0371569
16 *166:9 *175:9 0.000428933
*RES
1 la_data_in[12] *175:7 14.4111 
2 *175:7 *175:9 325.577 
3 *175:9 la_data_out[110] 14.4111 
*END

*D_NET *176 0.401419
*CONN
*P la_data_out[111] O
*P la_data_in[13] I
*CAP
1 la_data_out[111] 0.000353518
2 la_data_in[13] 0.000748416
3 *176:17 0.0245969
4 *176:15 0.0249918
5 *176:15 *177:7 4.67137e-05
6 *176:15 *183:9 0.000616281
7 *176:17 *177:9 0.000651011
8 *176:17 *179:9 0.00190325
9 *176:17 *180:17 0.154459
10 *176:17 *181:9 0.156716
11 *175:9 *176:15 0.00174001
12 *175:9 *176:17 0.0345965
*RES
1 la_data_in[13] *176:15 40.6131 
2 *176:15 *176:17 1788.66 
3 *176:17 la_data_out[111] 21.235 
*END

*D_NET *177 0.41349
*CONN
*P la_data_out[112] O
*P la_data_in[14] I
*CAP
1 la_data_out[112] 0.000402022
2 la_data_in[14] 0.000348434
3 *177:9 0.0323615
4 *177:7 0.0323079
5 *177:9 *178:9 0.174097
6 *177:9 *181:9 0.000250695
7 *177:9 *184:9 0
8 *166:9 *177:9 0.000675889
9 *175:9 *177:9 0.172349
10 *176:15 *177:7 4.67137e-05
11 *176:17 *177:9 0.000651011
*RES
1 la_data_in[14] *177:7 15.1154 
2 *177:7 *177:9 325.577 
3 *177:9 la_data_out[112] 15.1154 
*END

*D_NET *178 0.411283
*CONN
*P la_data_out[113] O
*P la_data_in[15] I
*CAP
1 la_data_out[113] 0.000430752
2 la_data_in[15] 0.00039858
3 *178:9 0.0319067
4 *178:7 0.0318746
5 *178:9 *182:9 0.168777
6 *178:9 *184:9 0
7 *166:9 *178:9 0.00379863
8 *177:9 *178:9 0.174097
*RES
1 la_data_in[15] *178:7 15.8196 
2 *178:7 *178:9 325.577 
3 *178:9 la_data_out[113] 15.8196 
*END

*D_NET *179 0.382077
*CONN
*P la_data_out[114] O
*P la_data_in[16] I
*CAP
1 la_data_out[114] 0.000300505
2 la_data_in[16] 0.000266409
3 *179:9 0.028753
4 *179:7 0.0287189
5 *179:9 *180:15 0.00108154
6 *179:9 *181:9 0.161733
7 *179:9 *184:9 0.000352685
8 *179:9 *271:17 0.13218
9 *175:9 *179:9 0.0267871
10 *176:17 *179:9 0.00190325
*RES
1 la_data_in[16] *179:7 20.5307 
2 *179:7 *179:9 1806.29 
3 *179:9 la_data_out[114] 20.5307 
*END

*D_NET *180 0.309801
*CONN
*P la_data_out[115] O
*P la_data_in[17] I
*CAP
1 la_data_out[115] 0.000356861
2 la_data_in[17] 0.00165492
3 *180:17 0.0535404
4 *180:15 0.0548384
5 *180:15 *181:9 0.000360514
6 *180:15 *183:9 0.00148494
7 *180:15 *281:41 1.40826e-05
8 *180:17 *181:9 0.00379672
9 *175:9 *180:15 0.00422196
10 *175:9 *180:17 0.0339921
11 *176:17 *180:17 0.154459
12 *179:9 *180:15 0.00108154
*RES
1 la_data_in[17] *180:15 45.602 
2 *180:15 *180:17 1762.93 
3 *180:17 la_data_out[115] 21.5871 
*END

*D_NET *181 0.398979
*CONN
*P la_data_out[116] O
*P la_data_in[18] I
*CAP
1 la_data_out[116] 0.000315931
2 la_data_in[18] 0.000302594
3 *181:9 0.0232708
4 *181:7 0.0232575
5 *181:7 *280:21 0
6 *175:9 *181:9 0.0289746
7 *176:17 *181:9 0.156716
8 *177:9 *181:9 0.000250695
9 *179:9 *181:9 0.161733
10 *180:15 *181:9 0.000360514
11 *180:17 *181:9 0.00379672
*RES
1 la_data_in[18] *181:7 20.8829 
2 *181:7 *181:9 1805.81 
3 *181:9 la_data_out[116] 20.8829 
*END

*D_NET *182 0.4017
*CONN
*P la_data_out[117] O
*P la_data_in[19] I
*CAP
1 la_data_out[117] 0.000433539
2 la_data_in[19] 0.00047317
3 *182:9 0.0351964
4 *182:7 0.0352361
5 *182:9 *184:9 0
6 *182:9 *192:9 0
7 *166:9 *182:9 0.161584
8 *178:9 *182:9 0.168777
*RES
1 la_data_in[19] *182:7 16.5239 
2 *182:7 *182:9 325.577 
3 *182:9 la_data_out[117] 16.5239 
*END

*D_NET *183 0.294375
*CONN
*P la_data_out[99] O
*P la_data_in[1] I
*CAP
1 la_data_out[99] 0.000215396
2 la_data_in[1] 0.000164277
3 *183:9 0.0493286
4 *183:7 0.0492775
5 *183:9 *184:9 0.141904
6 *183:9 *216:9 0.000184308
7 *183:9 *260:15 0.00109514
8 *183:9 *271:9 0.00352094
9 *183:9 *273:29 0.000842051
10 *183:9 *280:33 0
11 *144:11 *183:9 0.00441215
12 *175:9 *183:9 0.0413299
13 *176:15 *183:9 0.000616281
14 *180:15 *183:9 0.00148494
*RES
1 la_data_in[1] *183:7 11.5939 
2 *183:7 *183:9 325.577 
3 *183:9 la_data_out[99] 11.5939 
*END

*D_NET *184 0.392353
*CONN
*P la_data_out[118] O
*P la_data_in[20] I
*CAP
1 la_data_out[118] 0.000173186
2 la_data_in[20] 0.000140035
3 *184:9 0.035805
4 *184:7 0.0357719
5 *184:9 *185:9 0.174155
6 *184:9 *271:9 0.000489567
7 *175:9 *184:9 0.00356155
8 *177:9 *184:9 0
9 *178:9 *184:9 0
10 *179:9 *184:9 0.000352685
11 *182:9 *184:9 0
12 *183:9 *184:9 0.141904
*RES
1 la_data_in[20] *184:7 10.8896 
2 *184:7 *184:9 325.491 
3 *184:9 la_data_out[118] 10.8896 
*END

*D_NET *185 0.411693
*CONN
*P la_data_out[119] O
*P la_data_in[21] I
*CAP
1 la_data_out[119] 0.000130976
2 la_data_in[21] 0.00010824
3 *185:9 0.0312645
4 *185:7 0.0312417
5 *185:9 *186:9 0.174148
6 *185:9 *271:9 0.000644278
7 *184:9 *185:9 0.174155
*RES
1 la_data_in[21] *185:7 10.1854 
2 *185:7 *185:9 325.577 
3 *185:9 la_data_out[119] 10.1854 
*END

*D_NET *186 0.411961
*CONN
*P la_data_out[120] O
*P la_data_in[22] I
*CAP
1 la_data_out[120] 8.87657e-05
2 la_data_in[22] 7.73892e-05
3 *186:9 0.0312404
4 *186:7 0.031229
5 *186:9 *187:11 0.174289
6 *186:9 *271:9 0.000888441
7 *185:9 *186:9 0.174148
*RES
1 la_data_in[22] *186:7 9.48107 
2 *186:7 *186:9 325.577 
3 *186:9 la_data_out[120] 9.48107 
*END

*D_NET *187 0.411419
*CONN
*P la_data_out[121] O
*P la_data_in[23] I
*CAP
1 la_data_out[121] 0.000110793
2 la_data_in[23] 9.58152e-05
3 *187:11 0.0305557
4 *187:9 0.0305407
5 *187:11 *188:9 0.000907766
6 *187:11 *190:13 0.171003
7 *187:11 *271:9 0.00391642
8 *186:9 *187:11 0.174289
*RES
1 la_data_in[23] *187:9 9.87464 
2 *187:9 *187:11 325.92 
3 *187:11 la_data_out[121] 9.87464 
*END

*D_NET *188 0.309432
*CONN
*P la_data_out[122] O
*P la_data_in[24] I
*CAP
1 la_data_out[122] 0.000152436
2 la_data_in[24] 4.49146e-05
3 *188:9 0.0630722
4 *188:7 0.0629647
5 *188:9 *189:15 0.00179125
6 *188:9 *189:17 0.00603408
7 *188:9 *190:13 0.17254
8 *188:9 *271:9 0.001924
9 *187:11 *188:9 0.000907766
*RES
1 la_data_in[24] *188:7 9.02536 
2 *188:7 *188:9 325.061 
3 *188:9 la_data_out[122] 9.97821 
*END

*D_NET *189 0.257928
*CONN
*P la_data_out[123] O
*P la_data_in[25] I
*CAP
1 la_data_out[123] 6.61151e-05
2 la_data_in[25] 0.000792499
3 *189:17 0.0584061
4 *189:15 0.0591325
5 *189:17 *190:13 0.000265425
6 *189:17 *191:11 0.13144
7 *188:9 *189:15 0.00179125
8 *188:9 *189:17 0.00603408
*RES
1 la_data_in[25] *189:15 36.6182 
2 *189:15 *189:17 1785.32 
3 *189:17 la_data_out[123] 16.3464 
*END

*D_NET *190 0.407318
*CONN
*P la_data_out[124] O
*P la_data_in[26] I
*CAP
1 la_data_out[124] 4.49146e-05
2 la_data_in[26] 0.000163451
3 *190:13 0.0315911
4 *190:11 0.0317096
5 *187:11 *190:13 0.171003
6 *188:9 *190:13 0.17254
7 *189:17 *190:13 0.000265425
*RES
1 la_data_in[26] *190:11 12.1325 
2 *190:11 *190:13 325.577 
3 *190:13 la_data_out[124] 9.02536 
*END

*D_NET *191 0.280567
*CONN
*P la_data_out[125] O
*P la_data_in[27] I
*CAP
1 la_data_out[125] 0.000634198
2 la_data_in[27] 0.000126148
3 *191:19 0.00698146
4 *191:17 0.00721341
5 *191:11 0.0426845
6 *191:9 0.0419445
7 *191:19 *193:9 0.00780247
8 *191:19 *260:25 0.00223908
9 *191:19 *271:25 0.00393485
10 *191:19 *295:53 0.0173117
11 *191:19 *296:227 0.0182546
12 *189:17 *191:11 0.13144
*RES
1 la_data_in[27] *191:9 16.3464 
2 *191:9 *191:11 1434.67 
3 *191:11 *191:17 44.5829 
4 *191:17 *191:19 372.712 
5 *191:19 la_data_out[125] 28.63 
*END

*D_NET *192 0.435411
*CONN
*P la_data_out[126] O
*P la_data_in[28] I
*CAP
1 la_data_out[126] 0.00056724
2 la_data_in[28] 0.000756619
3 *192:9 0.0453451
4 *192:7 0.0455344
5 *192:9 *193:9 0.168877
6 *192:9 *249:17 0.000854219
7 *192:9 *260:25 0.0268722
8 *192:9 *296:227 0.0694481
9 *155:9 *192:9 0.0768347
10 *166:9 *192:9 0.000322114
11 *182:9 *192:9 0
*RES
1 la_data_in[28] *192:7 20.7496 
2 *192:7 *192:9 325.577 
3 *192:9 la_data_out[126] 20.7496 
*END

*D_NET *193 0.463231
*CONN
*P la_data_out[127] O
*P la_data_in[29] I
*CAP
1 la_data_out[127] 0.000604872
2 la_data_in[29] 0.000810301
3 *193:9 0.0398584
4 *193:7 0.0400638
5 *193:9 *216:25 0.0235457
6 *193:9 *238:25 0.0282518
7 *193:9 *249:17 0.132353
8 *193:9 *271:25 0.0011625
9 *193:9 *294:23 0.0110349
10 *193:9 *295:53 0.00886733
11 *191:19 *193:9 0.00780247
12 *192:9 *193:9 0.168877
*RES
1 la_data_in[29] *193:7 21.4539 
2 *193:7 *193:9 325.491 
3 *193:9 la_data_out[127] 21.4539 
*END

*D_NET *194 0.250922
*CONN
*P la_data_out[100] O
*P la_data_in[2] I
*CAP
1 la_data_out[100] 0.00149077
2 la_data_in[2] 0.00154678
3 *194:9 0.0644118
4 *194:7 0.0644678
5 *194:9 la_data_out[39] 0
6 *194:9 *227:9 0
7 *194:9 *324:13 0.00130553
8 *194:9 *339:15 0.0133956
9 *194:9 *343:13 0.00389878
10 *194:9 *348:13 0.00246765
11 *194:9 *350:13 0.0466996
12 *194:9 *354:13 0.00300029
13 *194:9 *356:13 0
14 io_oeb[37] *194:9 0
15 *74:9 *194:9 0.0416141
16 *82:9 *194:9 0.00662309
17 *83:9 *194:9 0
*RES
1 la_data_in[2] *194:7 35.5396 
2 *194:7 *194:9 325.577 
3 *194:9 la_data_out[100] 35.5396 
*END

*D_NET *205 0.331368
*CONN
*P la_data_out[101] O
*P la_data_in[3] I
*CAP
1 la_data_out[101] 0.00102667
2 la_data_in[3] 0.00118376
3 *205:17 0.0330801
4 *205:15 0.0342574
5 *205:9 0.0233022
6 *205:7 0.0222819
7 *205:9 la_data_out[37] 0.00135972
8 *205:9 *227:9 0.0638807
9 *205:9 *284:31 0.0164628
10 *205:9 *288:31 0.000926263
11 *205:9 *293:29 0
12 *205:9 *298:47 0.00317526
13 *205:9 *324:13 0
14 *205:15 *227:17 0.00116856
15 *205:15 *298:47 0.00068752
16 *205:15 *324:13 0
17 *205:17 *227:17 0.0969476
18 *205:17 *295:41 2.28878e-05
19 *205:17 *298:33 6.81484e-05
20 *205:17 *309:147 0.0077234
21 *205:17 *332:19 0.0194591
22 *205:17 *338:42 0.00231359
23 *205:17 *340:22 0.00135332
24 *205:17 *342:13 0
25 *205:17 *356:13 0
26 la_data_out[3] *205:7 0
27 *83:9 *205:9 0.000686654
28 *135:15 *205:7 0
*RES
1 la_data_in[3] *205:7 27.7925 
2 *205:7 *205:9 131.561 
3 *205:9 *205:15 9.69173 
4 *205:15 *205:17 185.056 
5 *205:17 la_data_out[101] 24.9754 
*END

*D_NET *216 0.40388
*CONN
*P la_data_out[102] O
*P la_data_in[4] I
*CAP
1 la_data_out[102] 0.000845993
2 la_data_in[4] 0.00446884
3 *216:25 0.0193023
4 *216:23 0.0186309
5 *216:17 0.0039179
6 *216:15 0.00402886
7 *216:9 0.00475447
8 *216:9 *238:13 0.00490527
9 *216:9 *273:29 0.0132029
10 *216:9 *276:23 0.00100056
11 *216:15 la_data_out[13] 0
12 *216:17 *238:17 0.015707
13 *216:23 la_data_out[25] 0
14 *216:25 *238:25 0.132386
15 *216:25 *249:17 0.00121354
16 *216:25 *292:41 0.00875879
17 *216:25 *295:43 0.0811962
18 *216:25 *295:53 0.0372885
19 *144:17 *216:17 0.0202638
20 *155:9 *216:17 0.0050375
21 *166:9 *216:9 0.00120434
22 *175:9 *216:9 0.00203632
23 *183:9 *216:9 0.000184308
24 *193:9 *216:25 0.0235457
*RES
1 la_data_in[4] *216:9 45.3964 
2 *216:9 *216:15 27.5468 
3 *216:15 *216:17 222.161 
4 *216:17 *216:23 32.61 
5 *216:23 *216:25 1416.57 
6 *216:25 la_data_out[102] 28.9821 
*END

*D_NET *227 0.394066
*CONN
*P la_data_out[103] O
*P la_data_in[5] I
*CAP
1 la_data_out[103] 0.000974747
2 la_data_in[5] 0.00120666
3 *227:17 0.0250339
4 *227:15 0.0242819
5 *227:9 0.0197364
6 *227:7 0.0207204
7 *227:7 *322:31 0
8 *227:9 la_data_out[39] 0.00354148
9 *227:9 *324:13 0
10 *227:17 *294:13 0.0372926
11 *227:17 *294:23 0.0713054
12 *227:17 *298:39 0.00711101
13 *227:17 *298:47 0.00200658
14 *227:17 *329:19 0.00552202
15 *227:17 *330:19 0.00425083
16 *83:9 *227:9 0.00908523
17 *194:9 *227:9 0
18 *205:9 *227:9 0.0638807
19 *205:15 *227:17 0.00116856
20 *205:17 *227:17 0.0969476
*RES
1 la_data_in[5] *227:7 28.4968 
2 *227:7 *227:9 118.466 
3 *227:9 *227:15 20.3707 
4 *227:15 *227:17 207.166 
5 *227:17 la_data_out[103] 24.2711 
*END

*D_NET *238 0.410633
*CONN
*P la_data_out[104] O
*P la_data_in[6] I
*CAP
1 la_data_out[104] 0.000804985
2 la_data_in[6] 0.0035835
3 *238:25 0.0196378
4 *238:23 0.019004
5 *238:17 0.00399432
6 *238:15 0.00382308
7 *238:13 0.0035835
8 *238:13 *274:23 0.00242578
9 *238:13 *276:23 0.00472018
10 *238:17 *249:9 0.0020559
11 *238:17 *260:17 0.0137082
12 *238:23 la_data_out[22] 0
13 *238:25 *249:17 0.00145017
14 *238:25 *260:25 0.140476
15 *238:25 *271:25 0.000946508
16 *238:25 *285:29 0.000222104
17 *238:25 *285:31 0.00143271
18 *238:25 *287:29 0.00025038
19 *238:25 *292:41 0.0016774
20 *238:25 *295:53 0.00138217
21 *82:7 *238:23 0
22 *144:17 *238:17 0.00183313
23 *155:9 *238:17 0.00202301
24 *166:9 *238:13 0.000347439
25 *193:9 *238:25 0.0282518
26 *216:9 *238:13 0.00490527
27 *216:17 *238:17 0.015707
28 *216:25 *238:25 0.132386
*RES
1 la_data_in[6] *238:13 44.5393 
2 *238:13 *238:15 15 
3 *238:15 *238:17 207.868 
4 *238:17 *238:23 32.61 
5 *238:23 *238:25 1503.28 
6 *238:25 la_data_out[104] 28.63 
*END

*D_NET *249 0.421898
*CONN
*P la_data_out[105] O
*P la_data_in[7] I
*CAP
1 la_data_out[105] 0.000848376
2 la_data_in[7] 0.000570555
3 *249:17 0.0369321
4 *249:15 0.0363419
5 *249:9 0.00572478
6 *249:7 0.0060372
7 *249:9 *260:17 0.00524782
8 *249:9 *276:21 0.000355222
9 *249:9 *276:23 0.013098
10 *249:9 *278:23 0.00283153
11 *249:15 la_data_out[20] 0
12 *249:15 *282:21 0
13 *249:17 *260:25 0.00057443
14 *249:17 *287:29 0.00911323
15 *249:17 *290:33 0.0141645
16 *249:17 *291:35 0.00244624
17 *249:17 *292:27 0.0674166
18 *249:17 *292:41 0.00342163
19 *249:17 *293:29 0.00168119
20 *249:17 *294:23 0.0308568
21 *249:17 *295:43 0.0176407
22 *249:17 *331:23 0.00389645
23 *155:9 *249:9 0.0181638
24 *155:9 *249:17 0.00124476
25 *166:9 *249:9 0.00536362
26 *192:9 *249:17 0.000854219
27 *193:9 *249:17 0.132353
28 *216:25 *249:17 0.00121354
29 *238:17 *249:9 0.0020559
30 *238:25 *249:17 0.00145017
*RES
1 la_data_in[7] *249:7 18.6368 
2 *249:7 *249:9 43.6763 
3 *249:9 *249:15 19.6664 
4 *249:15 *249:17 281.956 
5 *249:17 la_data_out[105] 22.1582 
*END

*D_NET *260 0.390289
*CONN
*P la_data_out[106] O
*P la_data_in[8] I
*CAP
1 la_data_out[106] 0.000771702
2 la_data_in[8] 0.00119447
3 *260:25 0.0239068
4 *260:23 0.0232961
5 *260:17 0.00494279
6 *260:15 0.0059763
7 *260:15 *273:29 0.00305119
8 *260:17 *275:29 0.00237927
9 *260:23 *281:41 4.74221e-05
10 *260:25 *271:25 0.000662181
11 *260:25 *282:31 0.00165207
12 *260:25 *285:31 0.00298068
13 *260:25 *287:29 0.000941403
14 *260:25 *296:227 0.123605
15 *105:5 *260:15 0.000381166
16 *144:15 *260:15 2.75733e-06
17 *144:17 *260:17 0.000976024
18 *144:17 *260:25 0.00325522
19 *144:37 *260:25 5.38552e-05
20 *183:9 *260:15 0.00109514
21 *191:19 *260:25 0.00223908
22 *192:9 *260:25 0.0268722
23 *238:17 *260:17 0.0137082
24 *238:25 *260:25 0.140476
25 *249:9 *260:17 0.00524782
26 *249:17 *260:25 0.00057443
*RES
1 la_data_in[8] *260:15 47.5952 
2 *260:15 *260:17 177.853 
3 *260:17 *260:23 32.61 
4 *260:23 *260:25 1597.61 
5 *260:25 la_data_out[106] 28.2779 
*END

*D_NET *271 0.321363
*CONN
*P la_data_out[107] O
*P la_data_in[9] I
*CAP
1 la_data_out[107] 0.000822541
2 la_data_in[9] 0.000171207
3 *271:25 0.00165107
4 *271:23 0.00139711
5 *271:17 0.0439928
6 *271:15 0.043725
7 *271:9 0.00967803
8 *271:7 0.00954845
9 *271:9 *280:33 0.0163714
10 *271:9 *281:51 0.00050139
11 *271:15 la_data_out[25] 0
12 *271:25 *295:53 0.00607722
13 *175:9 *271:17 0.0371569
14 *179:9 *271:17 0.13218
15 *183:9 *271:9 0.00352094
16 *184:9 *271:9 0.000489567
17 *185:9 *271:9 0.000644278
18 *186:9 *271:9 0.000888441
19 *187:11 *271:9 0.00391642
20 *188:9 *271:9 0.001924
21 *191:19 *271:25 0.00393485
22 *193:9 *271:25 0.0011625
23 *238:25 *271:25 0.000946508
24 *260:25 *271:25 0.000662181
*RES
1 la_data_in[9] *271:7 10.9311 
2 *271:7 *271:9 52.7781 
3 *271:9 *271:15 28.2511 
4 *271:15 *271:17 1445.63 
5 *271:17 *271:23 38.9486 
6 *271:23 *271:25 64.9393 
7 *271:25 la_data_out[107] 28.9821 
*END

*D_NET *272 0.526637
*CONN
*P wbs_dat_o[10] O
*P la_data_out[10] O
*I *537:module_status_flags_out[10] O *D phase_099_top_integration
*CAP
1 wbs_dat_o[10] 0.000624006
2 la_data_out[10] 0.000601726
3 *537:module_status_flags_out[10] 0.000498812
4 *272:41 0.00269371
5 *272:27 0.00992463
6 *272:25 0.00785492
7 *272:15 0.106598
8 *272:13 0.105996
9 *272:11 0.0200172
10 *272:9 0.020516
11 *272:11 *281:11 0.0169548
12 *272:11 *290:11 0
13 *272:11 *317:17 0.00354095
14 *272:11 *322:19 0.0085017
15 *272:11 *363:17 0.000339794
16 *272:27 *274:23 0.0427619
17 *272:27 *275:29 0.0391834
18 *272:27 *276:23 0.0024115
19 *272:27 *344:29 0
20 *272:41 wbs_dat_o[11] 0.000936801
21 *272:41 wbs_dat_o[12] 0.00446629
22 *272:41 *274:37 0.000164186
23 *272:41 *275:41 2.17681e-05
24 *272:41 *322:35 0.000194278
25 *272:41 *344:29 0.00043424
26 *272:41 *355:39 0.000488021
27 *537:rf_adc_i_in[9] *272:11 0.00145676
28 *52:21 *272:11 0.000101691
29 *61:29 *272:11 0.00983307
30 *64:23 *272:11 0.000156395
31 *124:7 *272:9 0.000234461
32 *126:11 *272:11 0.0217949
33 *132:13 *272:11 0
34 *133:47 *272:27 0.00105067
35 *134:27 *272:41 0.00787001
36 *136:11 *272:11 0.0827789
37 *136:35 *272:27 0.00563525
38 *155:7 la_data_out[10] 0
39 *155:7 *272:15 0
*RES
1 *537:module_status_flags_out[10] *272:9 17.4043 
2 *272:9 *272:11 153.156 
3 *272:11 *272:13 8 
4 *272:13 *272:15 2439.61 
5 *272:15 la_data_out[10] 11.455 
6 *272:15 *272:25 15 
7 *272:25 *272:27 497.06 
8 *272:27 *272:41 49.0218 
9 *272:41 wbs_dat_o[10] 12.7496 
*END

*D_NET *273 0.308269
*CONN
*P wbs_dat_o[11] O
*P la_data_out[11] O
*I *537:module_status_flags_out[11] O *D phase_099_top_integration
*CAP
1 wbs_dat_o[11] 0.00182971
2 la_data_out[11] 0.000368923
3 *537:module_status_flags_out[11] 0.0010272
4 *273:29 0.0197559
5 *273:27 0.0179262
6 *273:17 0.0516631
7 *273:15 0.0512942
8 *273:13 0.0511125
9 *273:11 0.0521397
10 wbs_dat_o[11] wbs_dat_o[12] 0.00102626
11 wbs_dat_o[11] *322:35 0.000372337
12 wbs_dat_o[11] *344:29 0.000641958
13 wbs_dat_o[11] *355:39 0.00134905
14 *273:11 *284:11 0
15 *273:13 *276:13 0
16 *273:13 *285:21 0
17 *273:13 *311:23 0
18 *273:13 *313:15 0
19 *273:13 *455:25 0
20 *273:29 *276:23 0.000853011
21 *273:29 *280:33 0
22 *273:29 *282:49 0.0048067
23 *49:15 *273:13 0
24 *70:5 la_data_out[11] 0
25 *70:5 *273:17 0
26 *132:41 *273:29 0.00746965
27 *132:49 *273:29 0.00461089
28 *133:47 *273:29 0.00784924
29 *144:11 *273:29 0.0141397
30 *183:9 *273:29 0.000842051
31 *216:9 *273:29 0.0132029
32 *260:15 *273:29 0.00305119
33 *272:41 wbs_dat_o[11] 0.000936801
*RES
1 *537:module_status_flags_out[11] *273:11 28.3207 
2 *273:11 *273:13 170.158 
3 *273:13 *273:15 8 
4 *273:15 *273:17 1174.19 
5 *273:17 la_data_out[11] 7.50893 
6 *273:17 *273:27 8 
7 *273:27 *273:29 99.9189 
8 *273:29 wbs_dat_o[11] 49.8498 
*END

*D_NET *274 0.476096
*CONN
*P la_data_out[12] O
*P wbs_dat_o[12] O
*I *537:module_status_flags_out[12] O *D phase_099_top_integration
*CAP
1 la_data_out[12] 0.000574874
2 wbs_dat_o[12] 0.001619
3 *537:module_status_flags_out[12] 0.000310021
4 *274:37 0.00217997
5 *274:23 0.0159686
6 *274:21 0.0174076
7 *274:15 0.105866
8 *274:13 0.104441
9 *274:11 0.0199779
10 *274:9 0.0202879
11 la_data_out[12] *275:29 0.000174996
12 wbs_dat_o[12] *275:41 0.00258841
13 wbs_dat_o[12] *322:35 0.000812434
14 wbs_dat_o[12] *344:29 0.00184279
15 wbs_dat_o[12] *355:39 0.00020552
16 *274:11 *296:9 0.00623769
17 *274:11 *299:15 0.00134112
18 *274:11 *312:9 0.00944355
19 *274:11 *317:19 0.0104382
20 *274:11 *318:11 0.00256259
21 *274:11 *322:27 0.0533105
22 *274:11 *338:10 0.000696596
23 *274:11 *344:11 0.00451878
24 *274:11 *344:19 0.0187446
25 *274:11 *351:15 0.00775275
26 *274:23 *275:29 0.00180398
27 *274:23 *276:23 0.000658671
28 *274:37 wbs_dat_o[16] 7.13521e-05
29 wbs_dat_o[11] wbs_dat_o[12] 0.00102626
30 *129:11 *274:9 8.99927e-05
31 *132:49 *274:23 0
32 *133:47 *274:23 0.00706469
33 *135:27 *274:37 0.00294566
34 *136:35 *274:37 0.00295334
35 *166:9 *274:23 0.000360536
36 *238:13 *274:23 0.00242578
37 *272:27 *274:23 0.0427619
38 *272:41 wbs_dat_o[12] 0.00446629
39 *272:41 *274:37 0.000164186
*RES
1 *537:module_status_flags_out[12] *274:9 13.1786 
2 *274:9 *274:11 149.121 
3 *274:11 *274:13 8 
4 *274:13 *274:15 2410.75 
5 *274:15 *274:21 40.7582 
6 *274:21 *274:23 503.254 
7 *274:23 *274:37 48.3672 
8 *274:37 wbs_dat_o[12] 29.0488 
9 *274:21 la_data_out[12] 27.5321 
*END

*D_NET *275 0.451659
*CONN
*P wbs_dat_o[13] O
*P la_data_out[13] O
*I *537:module_status_flags_out[13] O *D phase_099_top_integration
*CAP
1 wbs_dat_o[13] 0.000711373
2 la_data_out[13] 0.000492868
3 *537:module_status_flags_out[13] 0.000328009
4 *275:41 0.00287289
5 *275:29 0.0140958
6 *275:27 0.0119343
7 *275:19 0.0509972
8 *275:17 0.0505043
9 *275:15 0.0671397
10 *275:13 0.0671397
11 *275:11 0.00740351
12 *275:9 0.00773152
13 *275:9 *295:31 0.000248617
14 *275:9 *355:7 3.47048e-05
15 *275:11 *293:9 0.00732239
16 *275:11 *295:31 0.00766417
17 *275:11 *302:9 0.00828693
18 *275:11 *317:31 0.0225235
19 *275:11 *320:15 0.0429176
20 *275:11 *326:15 0.000913827
21 *275:15 *276:13 0
22 *275:15 *282:13 0
23 *275:15 *299:47 0.000243068
24 *275:15 *308:45 0.000288029
25 *275:15 *337:15 0
26 *275:29 *276:23 0.00843803
27 *275:29 *277:33 0
28 *275:29 *282:39 0.00244329
29 *275:29 *344:29 0
30 *275:41 wbs_dat_o[16] 0.0036864
31 *275:41 *276:33 0.00392669
32 *275:41 *277:41 0.000367205
33 *275:41 *322:35 0.000609196
34 *275:41 *333:37 0.00041717
35 *275:41 *344:29 0.000511824
36 *275:41 *355:39 0.000839242
37 la_data_out[12] *275:29 0.000174996
38 wbs_dat_o[12] *275:41 0.00258841
39 *134:27 *275:41 0.00486922
40 *136:27 *275:29 0.00688194
41 *144:17 *275:29 0
42 *166:9 *275:29 0.000723
43 *216:15 la_data_out[13] 0
44 *260:17 *275:29 0.00237927
45 *272:27 *275:29 0.0391834
46 *272:41 *275:41 2.17681e-05
47 *274:23 *275:29 0.00180398
*RES
1 *537:module_status_flags_out[13] *275:9 8.5936 
2 *275:9 *275:11 581.181 
3 *275:11 *275:13 8 
4 *275:13 *275:15 222.966 
5 *275:15 *275:17 8 
6 *275:17 *275:19 1156.76 
7 *275:19 la_data_out[13] 9.75643 
8 *275:19 *275:27 15 
9 *275:27 *275:29 486.102 
10 *275:29 *275:41 43.115 
11 *275:41 wbs_dat_o[13] 21.4539 
*END

*D_NET *276 0.34103
*CONN
*P la_data_out[14] O
*P wbs_dat_o[14] O
*I *537:module_status_flags_out[14] O *D phase_099_top_integration
*CAP
1 la_data_out[14] 0.000500302
2 wbs_dat_o[14] 0.000761088
3 *537:module_status_flags_out[14] 0.00132843
4 *276:33 0.00248876
5 *276:23 0.0137576
6 *276:21 0.0125784
7 *276:17 0.0508568
8 *276:15 0.0508087
9 *276:13 0.0473137
10 *276:11 0.0486421
11 *276:11 *294:7 0
12 *276:11 *294:9 0
13 *276:13 *299:47 0.00111375
14 *276:13 *308:45 0.00021135
15 *276:23 *278:23 0.00242696
16 *276:33 wbs_dat_o[16] 0.000706795
17 *276:33 *277:41 0.000339023
18 *276:33 *279:53 0.00209842
19 *276:33 *333:37 0.000288182
20 *276:33 *355:39 0.00735248
21 *73:5 *276:17 0
22 *133:47 *276:23 0.000974611
23 *135:27 *276:23 0.0292627
24 *136:27 *276:23 0.00141209
25 *136:35 *276:23 0.0240675
26 *166:9 *276:21 0.000330576
27 *166:9 *276:23 0.00594735
28 *216:9 *276:23 0.00100056
29 *238:13 *276:23 0.00472018
30 *249:9 *276:21 0.000355222
31 *249:9 *276:23 0.013098
32 *272:27 *276:23 0.0024115
33 *273:13 *276:13 0
34 *273:29 *276:23 0.000853011
35 *274:23 *276:23 0.000658671
36 *275:15 *276:13 0
37 *275:29 *276:23 0.00843803
38 *275:41 *276:33 0.00392669
*RES
1 *537:module_status_flags_out[14] *276:11 35.3636 
2 *276:11 *276:13 158.652 
3 *276:13 *276:15 8 
4 *276:15 *276:17 1163.62 
5 *276:17 *276:21 8.65707 
6 *276:21 *276:23 90.9888 
7 *276:23 *276:33 42.3371 
8 *276:33 wbs_dat_o[14] 14.1582 
9 *276:21 la_data_out[14] 17.9325 
*END

*D_NET *277 0.545893
*CONN
*P la_data_out[15] O
*P wbs_dat_o[15] O
*I *537:module_status_flags_out[15] O *D phase_099_top_integration
*CAP
1 la_data_out[15] 0.000769294
2 wbs_dat_o[15] 0.000751308
3 *537:module_status_flags_out[15] 0.000722388
4 *277:41 0.00373474
5 *277:39 0.00311473
6 *277:33 0.00698139
7 *277:31 0.0076194
8 *277:29 0.0517196
9 *277:27 0.0526706
10 *277:15 0.0232079
11 *277:13 0.0222569
12 *277:11 0.0129136
13 *277:9 0.013636
14 la_data_out[15] *279:45 0.000389569
15 la_data_out[15] *282:31 0.00041079
16 *277:11 *281:11 0.00125461
17 *277:11 *291:11 0.0193365
18 *277:11 *333:11 0.0246552
19 *277:11 *363:19 0.00028769
20 *277:15 *279:15 0.0356804
21 *277:15 *286:15 0
22 *277:27 *279:35 0.000410805
23 *277:27 *281:33 0.000181088
24 *277:27 *286:33 0.00230445
25 *277:27 *299:33 0.000913987
26 *277:29 *299:47 0.000887029
27 *277:33 wbs_dat_o[16] 0.000484212
28 *277:33 *278:23 0.00685616
29 *277:33 *279:45 0.0372072
30 *277:33 *282:31 0.0113873
31 *277:33 *282:39 0.00103809
32 *277:33 *285:31 0.000394693
33 *277:33 *344:27 0.000311475
34 *277:33 *344:29 0.0307549
35 *277:39 wbs_dat_o[21] 0
36 *277:41 *279:53 0.00123907
37 *277:41 *333:37 0.00987068
38 *537:rf_adc_q_in[0] *277:27 0
39 *537:rf_adc_q_in[10] *277:27 5.79868e-05
40 *537:rf_adc_q_in[4] *277:29 1.7998e-06
41 *537:rf_adc_q_in[5] *277:27 0.00050779
42 *537:rf_adc_q_in[5] *277:29 2.48919e-05
43 *537:rf_adc_q_in[6] *277:29 0
44 *30:21 *277:11 0.0192681
45 *37:13 *277:15 0.0201341
46 *38:9 *277:27 0.00117854
47 *41:21 *277:11 0.020093
48 *42:13 *277:15 0
49 *51:9 *277:15 0.0778981
50 *52:21 *277:11 0.000317346
51 *126:11 *277:11 0.0148937
52 *126:15 *277:15 0.00445808
53 *275:29 *277:33 0
54 *275:41 *277:41 0.000367205
55 *276:33 *277:41 0.000339023
*RES
1 *537:module_status_flags_out[15] *277:9 26.6932 
2 *277:9 *277:11 749.091 
3 *277:11 *277:13 15 
4 *277:13 *277:15 1250.43 
5 *277:15 *277:27 23.5304 
6 *277:27 *277:29 1187.04 
7 *277:29 *277:31 15 
8 *277:31 *277:33 472.286 
9 *277:33 *277:39 31.5536 
10 *277:39 *277:41 105.436 
11 *277:41 wbs_dat_o[15] 28.9821 
12 *277:31 la_data_out[15] 32.0064 
*END

*D_NET *278 0.310616
*CONN
*P la_data_out[16] O
*P wbs_dat_o[16] O
*I *537:module_status_flags_out[16] O *D phase_099_top_integration
*CAP
1 la_data_out[16] 0.000674633
2 wbs_dat_o[16] 0.00363869
3 *537:module_status_flags_out[16] 9.05605e-05
4 *278:23 0.014788
5 *278:21 0.0118833
6 *278:17 0.00202974
7 *278:13 0.035537
8 *278:11 0.0335666
9 *278:9 0.0498582
10 *278:7 0.0499487
11 wbs_dat_o[16] *279:53 0.00921274
12 wbs_dat_o[16] *322:35 0.00183765
13 wbs_dat_o[16] *344:29 0.00232636
14 *278:21 *287:29 0.000142841
15 *278:23 *279:43 0.000215382
16 *278:23 *279:45 0.00783837
17 *278:23 *279:53 0.0018609
18 *278:23 *282:39 0.00483756
19 *278:23 *287:29 0.0176427
20 *278:23 *289:37 0.00757144
21 *278:23 *322:35 0.000182935
22 *278:23 *344:29 0.000206796
23 *278:23 *355:39 0.000378086
24 *75:7 *278:17 0
25 *134:13 *278:13 0
26 *134:27 wbs_dat_o[16] 0.00385925
27 *134:27 *278:23 0.0203804
28 *135:27 *278:23 0.000825297
29 *144:17 *278:23 0.00063269
30 *155:9 *278:21 0.000235919
31 *155:9 *278:23 0.0113495
32 *249:9 *278:23 0.00283153
33 *274:37 wbs_dat_o[16] 7.13521e-05
34 *275:41 wbs_dat_o[16] 0.0036864
35 *276:23 *278:23 0.00242696
36 *276:33 wbs_dat_o[16] 0.000706795
37 *277:33 wbs_dat_o[16] 0.000484212
38 *277:33 *278:23 0.00685616
*RES
1 *537:module_status_flags_out[16] *278:7 1.86429 
2 *278:7 *278:9 1147.43 
3 *278:9 *278:11 8 
4 *278:11 *278:13 110.738 
5 *278:13 *278:17 47.585 
6 *278:17 *278:21 8.48533 
7 *278:21 *278:23 83.9907 
8 *278:23 wbs_dat_o[16] 44.4446 
9 *278:21 la_data_out[16] 20.0454 
*END

*D_NET *279 0.542332
*CONN
*P la_data_out[17] O
*P wbs_dat_o[17] O
*I *537:module_status_flags_out[17] O *D phase_099_top_integration
*CAP
1 la_data_out[17] 0.000797992
2 wbs_dat_o[17] 0.000727104
3 *537:module_status_flags_out[17] 0.000552772
4 *279:53 0.00437376
5 *279:45 0.0095847
6 *279:43 0.00642258
7 *279:39 0.00128252
8 *279:37 0.0518171
9 *279:35 0.0536989
10 *279:15 0.0208156
11 *279:13 0.0189337
12 *279:11 0.00805604
13 *279:9 0.00860881
14 la_data_out[17] *282:31 0.000500161
15 *279:9 *317:17 0.000582502
16 *279:11 *289:11 0.0462774
17 *279:11 *290:11 0.00036754
18 *279:11 *291:11 0.00101352
19 *279:15 *286:15 0
20 *279:35 *281:33 0.00646505
21 *279:35 *286:33 0.00159556
22 *279:35 *286:37 0.00105682
23 *279:35 *308:37 3.46729e-05
24 *279:37 *299:73 0
25 *279:43 *282:31 0.00269908
26 *279:45 *282:31 0.000127069
27 *279:45 *282:39 0.0141938
28 *279:53 wbs_dat_o[24] 0
29 *279:53 *322:35 0.00063772
30 *279:53 *333:37 0.0018111
31 *279:53 *344:29 0.000549544
32 *279:53 *355:39 0.00516301
33 la_data_out[15] *279:45 0.000389569
34 wbs_dat_o[16] *279:53 0.00921274
35 *38:9 *279:35 9.24631e-05
36 *39:13 *279:15 7.58749e-05
37 *42:13 *279:15 5.4358e-05
38 *77:21 *279:15 0.0175571
39 *78:25 *279:15 0.0982361
40 *126:11 *279:11 0.0469799
41 *144:17 la_data_out[17] 0.000269381
42 *144:17 *279:43 0.00148323
43 *144:17 *279:45 0.0126849
44 *276:33 *279:53 0.00209842
45 *277:15 *279:15 0.0356804
46 *277:27 *279:35 0.000410805
47 *277:33 *279:45 0.0372072
48 *277:41 *279:53 0.00123907
49 *278:23 *279:43 0.000215382
50 *278:23 *279:45 0.00783837
51 *278:23 *279:53 0.0018609
*RES
1 *537:module_status_flags_out[17] *279:9 19.745 
2 *279:9 *279:11 86.7813 
3 *279:11 *279:13 8 
4 *279:13 *279:15 1250.25 
5 *279:15 *279:35 46.1197 
6 *279:35 *279:37 1185.63 
7 *279:37 *279:39 15 
8 *279:39 *279:43 29.4661 
9 *279:43 *279:45 414.4 
10 *279:45 *279:53 48.4762 
11 *279:53 wbs_dat_o[17] 21.4539 
12 *279:39 la_data_out[17] 32.9593 
*END

*D_NET *280 0.270302
*CONN
*P wbs_dat_o[18] O
*P la_data_out[18] O
*I *537:module_status_flags_out[18] O *D phase_099_top_integration
*CAP
1 wbs_dat_o[18] 4.49146e-05
2 la_data_out[18] 0.000140594
3 *537:module_status_flags_out[18] 0.000485639
4 *280:33 0.0283906
5 *280:31 0.0283457
6 *280:21 0.00209666
7 *280:17 0.052241
8 *280:15 0.0502849
9 *280:13 0.0114976
10 *280:11 0.0119832
11 *280:13 *284:13 0.00206487
12 *280:13 *287:13 0.0244978
13 *280:13 *289:19 0.00189706
14 *280:13 *290:19 0.0173835
15 *280:13 *300:15 0.00208458
16 *280:17 *299:81 0
17 *280:33 *281:51 0.0204918
18 *280:33 *282:49 0
19 *76:9 *280:13 0
20 *144:11 *280:33 0
21 *181:7 *280:21 0
22 *183:9 *280:33 0
23 *271:9 *280:33 0.0163714
24 *273:29 *280:33 0
*RES
1 *537:module_status_flags_out[18] *280:11 18.4607 
2 *280:11 *280:13 70.2091 
3 *280:13 *280:15 8 
4 *280:15 *280:17 1156.42 
5 *280:17 *280:21 35.9186 
6 *280:21 la_data_out[18] 1.87464 
7 *280:21 *280:31 8 
8 *280:31 *280:33 104.813 
9 *280:33 wbs_dat_o[18] 9.02536 
*END

*D_NET *281 0.53216
*CONN
*P la_data_out[19] O
*P wbs_dat_o[19] O
*I *537:module_status_flags_out[19] O *D phase_099_top_integration
*CAP
1 la_data_out[19] 8.34427e-05
2 wbs_dat_o[19] 0.000107663
3 *537:module_status_flags_out[19] 0.000630071
4 *281:51 0.0275145
5 *281:49 0.0275513
6 *281:41 0.00205445
7 *281:37 0.0523218
8 *281:35 0.0504952
9 *281:33 0.00295705
10 *281:15 0.0282617
11 *281:13 0.0253047
12 *281:11 0.026864
13 *281:9 0.0274941
14 *281:9 *344:9 0
15 *281:11 *291:11 0
16 *281:11 *317:17 0.000739427
17 *281:11 *322:19 0.0267748
18 *281:11 *330:11 0.000636908
19 *281:11 *333:11 0.0246958
20 *281:15 *286:15 0.0269837
21 *281:15 *286:19 0
22 *281:15 *296:17 0.0963376
23 *281:33 *286:33 1.89452e-05
24 *281:33 *286:37 0.0010727
25 *281:33 *299:33 2.0074e-05
26 *281:37 *299:89 0
27 *281:37 *299:103 0.000382013
28 *281:37 *308:47 0
29 *537:rf_adc_i_in[9] *281:11 0.000306993
30 *537:rf_adc_q_in[0] *281:33 7.74531e-05
31 *537:rf_adc_q_in[13] *281:33 5.50667e-05
32 *38:9 *281:33 2.047e-05
33 *51:9 *281:15 0
34 *52:21 *281:11 0.0231747
35 *61:29 *281:11 0.00181285
36 *76:9 *281:33 1.35507e-05
37 *77:17 *281:33 0.00935333
38 *78:21 *281:33 0
39 *80:23 *281:33 0.00040046
40 *131:13 *281:33 0
41 *136:11 *281:11 0.00173284
42 *180:15 *281:41 1.40826e-05
43 *260:23 *281:41 4.74221e-05
44 *271:9 *281:51 0.00050139
45 *272:11 *281:11 0.0169548
46 *277:11 *281:11 0.00125461
47 *277:27 *281:33 0.000181088
48 *279:35 *281:33 0.00646505
49 *280:33 *281:51 0.0204918
*RES
1 *537:module_status_flags_out[19] *281:9 25.2846 
2 *281:9 *281:11 975.871 
3 *281:11 *281:13 15 
4 *281:13 *281:15 1245.5 
5 *281:15 *281:33 46.0416 
6 *281:33 *281:35 8 
7 *281:35 *281:37 1163.46 
8 *281:37 *281:41 33.8057 
9 *281:41 *281:49 18.5525 
10 *281:49 *281:51 581.388 
11 *281:51 wbs_dat_o[19] 16.3464 
12 *281:41 la_data_out[19] 2.57893 
*END

*D_NET *282 0.422131
*CONN
*P wbs_dat_o[20] O
*P la_data_out[20] O
*I *537:module_status_flags_out[20] O *D phase_099_top_integration
*CAP
1 wbs_dat_o[20] 0.000259192
2 la_data_out[20] 0.000741444
3 *537:module_status_flags_out[20] 0.000725552
4 *282:49 0.00238649
5 *282:39 0.0106636
6 *282:37 0.00865455
7 *282:31 0.00435724
8 *282:29 0.00423896
9 *282:21 0.00192071
10 *282:17 0.0493504
11 *282:15 0.0481712
12 *282:13 0.0606354
13 *282:11 0.0606354
14 *282:9 0.00885166
15 *282:7 0.00957722
16 *282:7 *364:7 8.61573e-05
17 *282:9 *309:15 0.0218899
18 *282:9 *312:23 0.000337988
19 *282:9 *318:31 0.00386085
20 *282:9 *319:9 0.00956671
21 *282:9 *325:22 0
22 *282:9 *334:15 0.0422241
23 *282:9 *338:30 0.00861566
24 *282:13 *283:13 0
25 *282:17 *308:55 0.00367048
26 *282:31 *285:31 0.00666988
27 *282:31 *287:29 0.00324434
28 *282:37 la_data_out[8] 0
29 la_data_out[15] *282:31 0.00041079
30 la_data_out[17] *282:31 0.000500161
31 *104:5 *282:37 0
32 *131:7 *282:7 8.61573e-05
33 *132:49 *282:49 0.00175926
34 *136:27 *282:39 0.00199435
35 *144:17 *282:31 0.00193963
36 *144:17 *282:39 0.000920197
37 *249:15 la_data_out[20] 0
38 *249:15 *282:21 0
39 *260:25 *282:31 0.00165207
40 *273:29 *282:49 0.0048067
41 *275:15 *282:13 0
42 *275:29 *282:39 0.00244329
43 *277:33 *282:31 0.0113873
44 *277:33 *282:39 0.00103809
45 *278:23 *282:39 0.00483756
46 *279:43 *282:31 0.00269908
47 *279:45 *282:31 0.000127069
48 *279:45 *282:39 0.0141938
49 *280:33 *282:49 0
*RES
1 *537:module_status_flags_out[20] *282:7 9.53067 
2 *282:7 *282:9 579.772 
3 *282:9 *282:11 8 
4 *282:11 *282:13 201.156 
5 *282:13 *282:15 8 
6 *282:15 *282:17 1125.43 
7 *282:17 *282:21 21.8846 
8 *282:21 la_data_out[20] 12.9257 
9 *282:21 *282:29 15 
10 *282:29 *282:31 217.873 
11 *282:31 *282:37 31.5536 
12 *282:37 *282:39 314.588 
13 *282:39 *282:49 45.8556 
14 *282:49 wbs_dat_o[20] 5.70679 
*END

*D_NET *283 0.332515
*CONN
*P la_data_out[21] O
*P wbs_dat_o[21] O
*I *537:module_status_flags_out[21] O *D phase_099_top_integration
*CAP
1 la_data_out[21] 0.00106579
2 wbs_dat_o[21] 0.000990015
3 *537:module_status_flags_out[21] 0.00224239
4 *283:23 0.0135612
5 *283:21 0.0137061
6 *283:17 0.0462588
7 *283:15 0.0461897
8 *283:13 0.0432026
9 *283:11 0.0432026
10 *283:9 0.00224239
11 *283:17 *296:57 0
12 *283:17 *299:121 0.0160399
13 *283:21 *284:31 0.000345673
14 *283:21 *288:31 0.000157586
15 *283:23 *284:31 0.053158
16 *283:23 *286:51 0.0476587
17 *283:23 *288:31 0.000990203
18 *283:23 *364:31 0.00150343
19 *81:5 *283:17 0
20 *83:9 *283:23 0
21 *277:39 wbs_dat_o[21] 0
22 *282:13 *283:13 0
*RES
1 *537:module_status_flags_out[21] *283:9 48.4921 
2 *283:9 *283:11 8 
3 *283:11 *283:13 146.287 
4 *283:13 *283:15 8 
5 *283:15 *283:17 1134.75 
6 *283:17 *283:21 8.65707 
7 *283:21 *283:23 104.899 
8 *283:23 wbs_dat_o[21] 25.6796 
9 *283:21 la_data_out[21] 25.6796 
*END

*D_NET *284 0.349392
*CONN
*P wbs_dat_o[22] O
*P la_data_out[22] O
*I *537:module_status_flags_out[22] O *D phase_099_top_integration
*CAP
1 wbs_dat_o[22] 0.00102889
2 la_data_out[22] 0.00110846
3 *537:module_status_flags_out[22] 0.000648646
4 *284:31 0.0184105
5 *284:29 0.0173816
6 *284:21 0.00409869
7 *284:19 0.00303833
8 *284:17 0.0480727
9 *284:15 0.0480246
10 *284:13 0.0202307
11 *284:11 0.0208793
12 *284:13 *285:21 0.00405328
13 *284:13 *287:13 0.000719302
14 *284:13 *288:13 0.0544516
15 *284:13 *289:19 0.00877701
16 *284:13 *291:29 0.000789349
17 *284:13 *297:23 0.00397871
18 *284:13 *304:19 0.00239374
19 *284:13 *305:13 0.00174735
20 *284:13 *311:23 0.00173511
21 *284:13 *313:15 0.00812658
22 *284:13 *314:19 0.00382593
23 *284:13 *321:26 0.00343
24 *284:31 *288:31 0.000410411
25 *83:9 *284:31 0
26 *205:9 *284:31 0.0164628
27 *238:23 la_data_out[22] 0
28 *273:11 *284:11 0
29 *280:13 *284:13 0.00206487
30 *283:21 *284:31 0.000345673
31 *283:23 *284:31 0.053158
*RES
1 *537:module_status_flags_out[22] *284:11 20.5736 
2 *284:11 *284:13 134.695 
3 *284:13 *284:15 8 
4 *284:15 *284:17 1104.28 
5 *284:17 *284:19 1.09786 
6 *284:19 *284:21 65.83 
7 *284:21 la_data_out[22] 18.3839 
8 *284:21 *284:29 8 
9 *284:29 *284:31 104.899 
10 *284:31 wbs_dat_o[22] 26.3839 
*END

*D_NET *285 0.351721
*CONN
*P la_data_out[23] O
*P wbs_dat_o[23] O
*I *537:module_status_flags_out[23] O *D phase_099_top_integration
*CAP
1 la_data_out[23] 0.000838224
2 wbs_dat_o[23] 0.000802247
3 *537:module_status_flags_out[23] 0.000467242
4 *285:31 0.0116617
5 *285:29 0.0117358
6 *285:25 0.0511289
7 *285:23 0.0510908
8 *285:21 0.0195562
9 *285:19 0.0198954
10 *285:13 0.0106139
11 *285:11 0.0107419
12 *285:11 *339:7 0
13 *285:11 *339:9 0
14 *285:11 *342:7 0
15 *285:11 *342:9 0
16 *285:13 *297:13 0.0315605
17 *285:13 *304:19 0
18 *285:13 *310:15 0.000350519
19 *285:13 *311:13 0.00608941
20 *285:13 *314:19 0
21 *285:19 la_data_out[49] 0.000117008
22 *285:21 *289:19 0.000529467
23 *285:21 *291:29 0.0028622
24 *285:21 *297:23 0.0145667
25 *285:21 *455:17 0.0112275
26 *285:21 *455:25 0.00170236
27 *285:29 *292:41 0.000232049
28 *285:31 *287:29 0.00848812
29 *285:31 *291:35 0.000944128
30 *285:31 *292:41 0.0422701
31 *285:31 *333:37 0.025203
32 *285:31 *344:27 0.000112756
33 *285:31 *344:29 0.000603799
34 *285:31 *355:31 0
35 *285:31 *355:39 0.000575796
36 *285:31 *364:23 0
37 *83:7 *285:25 0
38 *238:25 *285:29 0.000222104
39 *238:25 *285:31 0.00143271
40 *260:25 *285:31 0.00298068
41 *273:13 *285:21 0
42 *277:33 *285:31 0.000394693
43 *282:31 *285:31 0.00666988
44 *284:13 *285:21 0.00405328
*RES
1 *537:module_status_flags_out[23] *285:11 24.5804 
2 *285:11 *285:13 337.933 
3 *285:13 *285:19 29.6596 
4 *285:19 *285:21 85.4933 
5 *285:21 *285:23 8 
6 *285:23 *285:25 1170.84 
7 *285:25 *285:29 17.5271 
8 *285:29 *285:31 581.864 
9 *285:31 wbs_dat_o[23] 28.9821 
10 *285:29 la_data_out[23] 28.9821 
*END

*D_NET *286 0.492821
*CONN
*P la_data_out[24] O
*P wbs_dat_o[24] O
*I *537:module_status_flags_out[24] O *D phase_099_top_integration
*CAP
1 la_data_out[24] 0.00118056
2 wbs_dat_o[24] 0.000966396
3 *537:module_status_flags_out[24] 0.000822805
4 *286:51 0.0113537
5 *286:49 0.0104343
6 *286:43 0.00217724
7 *286:41 0.00331079
8 *286:39 0.0516338
9 *286:37 0.0567074
10 *286:33 0.0063486
11 *286:19 0.00349705
12 *286:17 0.00224921
13 *286:15 0.0272641
14 *286:13 0.0272369
15 *286:11 0.0101355
16 *286:9 0.0109583
17 la_data_out[24] *288:31 0.000100139
18 la_data_out[24] *289:27 0.000489046
19 *286:9 *329:9 0
20 *286:11 *290:11 0.0401982
21 *286:15 *333:21 0.000886
22 *286:43 *288:31 0.00129192
23 *286:43 *289:27 0.00667964
24 *286:51 *288:31 0.044163
25 *286:51 *364:31 0.00172344
26 *537:rf_adc_q_in[0] *286:33 2.58697e-05
27 *537:rf_adc_q_in[12] *286:33 0
28 *537:rf_adc_q_in[13] *286:33 0.000937881
29 *537:rf_adc_q_in[14] *286:33 0.000131653
30 *37:13 *286:15 0.0104778
31 *37:13 *286:19 0.000830782
32 *38:9 *286:33 0.000349349
33 *38:9 *286:37 0.0153086
34 *51:9 *286:15 0.00785625
35 *51:9 *286:19 5.45998e-05
36 *53:9 *286:15 0.0265526
37 *53:9 *286:19 0.00616716
38 *78:21 *286:33 0.000709234
39 *78:25 *286:15 0
40 *80:23 *286:37 0
41 *126:15 *286:15 0.00109359
42 *131:13 *286:33 0
43 *132:13 *286:11 0.0198268
44 *277:15 *286:15 0
45 *277:27 *286:33 0.00230445
46 *279:15 *286:15 0
47 *279:35 *286:33 0.00159556
48 *279:35 *286:37 0.00105682
49 *279:53 wbs_dat_o[24] 0
50 *281:15 *286:15 0.0269837
51 *281:15 *286:19 0
52 *281:33 *286:33 1.89452e-05
53 *281:33 *286:37 0.0010727
54 *283:23 *286:51 0.0476587
*RES
1 *537:module_status_flags_out[24] *286:9 21.8579 
2 *286:9 *286:11 76.5632 
3 *286:11 *286:13 8 
4 *286:13 *286:15 1169.28 
5 *286:15 *286:17 0.621429 
6 *286:17 *286:19 79.7086 
7 *286:19 *286:33 36.7115 
8 *286:33 *286:37 36.4349 
9 *286:37 *286:39 1183.17 
10 *286:39 *286:41 15 
11 *286:41 *286:43 71.6093 
12 *286:43 *286:49 23.6732 
13 *286:49 *286:51 91.0747 
14 *286:51 wbs_dat_o[24] 24.9754 
15 *286:41 la_data_out[24] 36.8329 
*END

*D_NET *287 0.352238
*CONN
*P wbs_dat_o[25] O
*P la_data_out[25] O
*I *537:module_status_flags_out[25] O *D phase_099_top_integration
*CAP
1 wbs_dat_o[25] 0.000763915
2 la_data_out[25] 0.000973755
3 *537:module_status_flags_out[25] 0.00056558
4 *287:29 0.0178631
5 *287:27 0.0170992
6 *287:17 0.0523381
7 *287:15 0.0513643
8 *287:13 0.0114874
9 *287:11 0.012053
10 *287:11 *313:15 0
11 *287:13 *288:13 0.0512151
12 *287:13 *300:15 0.00325242
13 *287:13 *304:19 0.00197416
14 *287:13 *305:13 0.0214607
15 *287:17 *308:71 0
16 *287:29 *289:37 0.0073463
17 *287:29 *290:33 0.0199664
18 *287:29 *322:35 0.00253557
19 *287:29 *333:37 0.0044851
20 *287:29 *344:29 0.00255039
21 *287:29 *355:39 0.00173108
22 *287:29 *364:31 0.000496847
23 *85:5 *287:17 0
24 *155:9 *287:29 0.00567523
25 *216:23 la_data_out[25] 0
26 *238:25 *287:29 0.00025038
27 *249:17 *287:29 0.00911323
28 *260:25 *287:29 0.000941403
29 *271:15 la_data_out[25] 0
30 *278:21 *287:29 0.000142841
31 *278:23 *287:29 0.0176427
32 *280:13 *287:13 0.0244978
33 *282:31 *287:29 0.00324434
34 *284:13 *287:13 0.000719302
35 *285:31 *287:29 0.00848812
*RES
1 *537:module_status_flags_out[25] *287:11 19.165 
2 *287:11 *287:13 100.262 
3 *287:13 *287:15 8 
4 *287:15 *287:17 1176.3 
5 *287:17 la_data_out[25] 15.0282 
6 *287:17 *287:27 8 
7 *287:27 *287:29 105.157 
8 *287:29 wbs_dat_o[25] 21.4539 
*END

*D_NET *288 0.373398
*CONN
*P wbs_dat_o[26] O
*P la_data_out[26] O
*I *537:module_status_flags_out[26] O *D phase_099_top_integration
*CAP
1 wbs_dat_o[26] 0.000937635
2 la_data_out[26] 0.000999134
3 *537:module_status_flags_out[26] 0.000600382
4 *288:31 0.0145974
5 *288:29 0.0136598
6 *288:21 0.00403155
7 *288:19 0.00316399
8 *288:17 0.0471789
9 *288:15 0.0470473
10 *288:13 0.010285
11 *288:11 0.0108854
12 *288:13 *305:13 0.000767594
13 *288:17 *299:151 0.0051048
14 *288:17 *455:23 0
15 *288:31 *290:33 0.00245597
16 *288:31 *293:29 0.0461806
17 *288:31 *355:31 0.00364354
18 *288:31 *364:23 0.00444677
19 *288:31 *364:31 0.00370596
20 la_data_out[24] *288:31 0.000100139
21 *205:9 *288:31 0.000926263
22 *283:21 *288:31 0.000157586
23 *283:23 *288:31 0.000990203
24 *284:13 *288:13 0.0544516
25 *284:31 *288:31 0.000410411
26 *286:43 *288:31 0.00129192
27 *286:51 *288:31 0.044163
28 *287:13 *288:13 0.0512151
*RES
1 *537:module_status_flags_out[26] *288:11 19.8693 
2 *288:11 *288:13 100.692 
3 *288:13 *288:15 8 
4 *288:15 *288:17 1104.98 
5 *288:17 *288:19 3.00357 
6 *288:19 *288:21 67.9429 
7 *288:21 la_data_out[26] 16.2711 
8 *288:21 *288:29 8 
9 *288:29 *288:31 104.899 
10 *288:31 wbs_dat_o[26] 24.2711 
*END

*D_NET *289 0.587593
*CONN
*P la_data_out[27] O
*P wbs_dat_o[27] O
*I *537:module_status_flags_out[27] O *D phase_099_top_integration
*CAP
1 la_data_out[27] 0.00110336
2 wbs_dat_o[27] 0.000717349
3 *537:module_status_flags_out[27] 0.000704746
4 *289:37 0.00257225
5 *289:27 0.0161293
6 *289:25 0.0153778
7 *289:23 0.0523257
8 *289:21 0.0523257
9 *289:19 0.0057083
10 *289:17 0.0057083
11 *289:15 0.0220947
12 *289:13 0.0220947
13 *289:11 0.0102008
14 *289:9 0.0109056
15 la_data_out[27] *291:35 6.39554e-05
16 *289:11 *290:11 0.0428214
17 *289:11 *291:11 0.00163432
18 *289:11 *363:19 0.000442438
19 *289:15 *308:23 0.0767566
20 *289:15 *308:31 0.000342359
21 *289:19 *290:19 0.00107963
22 *289:19 *455:25 0.0218641
23 *289:27 *291:35 0.011355
24 *289:27 *293:29 0.0073822
25 *289:27 *364:21 0.000222104
26 *289:27 *364:23 0.0161425
27 *289:37 wbs_dat_o[31] 0
28 *289:37 *322:35 0.00130843
29 *289:37 *344:29 0.00150233
30 la_data_out[24] *289:27 0.000489046
31 *537:rf_adc_i_in[4] *289:11 0.00239643
32 *537:rf_adc_i_in[5] *289:9 0
33 *537:rf_adc_q_in[15] *289:19 0.000308954
34 *537:rf_adc_q_in[4] *289:19 0.00036012
35 *77:21 *289:15 0
36 *80:27 *289:15 0.0976383
37 *126:11 *289:11 0.00406904
38 *132:13 *289:11 0.00236706
39 *144:21 *289:23 0
40 *144:37 la_data_out[27] 0
41 *278:23 *289:37 0.00757144
42 *279:11 *289:11 0.0462774
43 *280:13 *289:19 0.00189706
44 *284:13 *289:19 0.00877701
45 *285:21 *289:19 0.000529467
46 *286:43 *289:27 0.00667964
47 *287:29 *289:37 0.0073463
*RES
1 *537:module_status_flags_out[27] *289:9 19.02 
2 *289:9 *289:11 99.6184 
3 *289:11 *289:13 8 
4 *289:13 *289:15 228.028 
5 *289:15 *289:17 8 
6 *289:17 *289:19 44.2344 
7 *289:19 *289:21 8 
8 *289:21 *289:23 1171.55 
9 *289:23 *289:25 15 
10 *289:25 *289:27 500.871 
11 *289:27 *289:37 48.5426 
12 *289:37 wbs_dat_o[27] 12.7496 
13 *289:25 la_data_out[27] 34.0986 
*END

*D_NET *290 0.565702
*CONN
*P wbs_dat_o[28] O
*P la_data_out[28] O
*I *537:module_status_flags_out[28] O *D phase_099_top_integration
*CAP
1 wbs_dat_o[28] 0.000869876
2 la_data_out[28] 0.000919681
3 *537:module_status_flags_out[28] 0.000719492
4 *290:33 0.0157673
5 *290:31 0.0148974
6 *290:23 0.0516962
7 *290:21 0.0507765
8 *290:19 0.0108782
9 *290:17 0.0108782
10 *290:15 0.0344795
11 *290:13 0.0344795
12 *290:11 0.00882992
13 *290:9 0.00954942
14 *290:9 *323:11 0
15 *290:11 *291:11 0.000255419
16 *290:15 *291:15 0.099273
17 *290:19 *291:19 0.00909722
18 *290:19 *308:37 0
19 *290:23 *296:125 0
20 *290:23 *299:179 0
21 *290:23 *299:191 0.00277808
22 *290:33 *291:35 0.00776342
23 *290:33 *292:41 0.00602179
24 *290:33 *293:29 0.0496221
25 *290:33 *364:31 0.000246848
26 *537:rf_adc_q_in[15] *290:19 0.00016615
27 *537:rf_adc_q_in[3] *290:19 0.00224618
28 *537:rf_adc_q_in[4] *290:19 0.00256525
29 *537:rf_adc_q_in[7] *290:19 4.41975e-05
30 *44:9 *290:19 0.000500291
31 *48:15 *290:19 0.000955879
32 *71:5 *290:15 3.63067e-05
33 *76:9 *290:19 0
34 *126:11 *290:11 5.24719e-05
35 *132:13 *290:11 0.000899237
36 *249:17 *290:33 0.0141645
37 *272:11 *290:11 0
38 *279:11 *290:11 0.00036754
39 *280:13 *290:19 0.0173835
40 *286:11 *290:11 0.0401982
41 *287:29 *290:33 0.0199664
42 *288:31 *290:33 0.00245597
43 *289:11 *290:11 0.0428214
44 *289:19 *290:19 0.00107963
*RES
1 *537:module_status_flags_out[28] *290:9 20.2007 
2 *290:9 *290:11 82.5739 
3 *290:11 *290:13 8 
4 *290:13 *290:15 1262.22 
5 *290:15 *290:17 8 
6 *290:17 *290:19 51.6619 
7 *290:19 *290:21 8 
8 *290:21 *290:23 1176.3 
9 *290:23 la_data_out[28] 14.8625 
10 *290:23 *290:31 8 
11 *290:31 *290:33 104.899 
12 *290:33 wbs_dat_o[28] 22.8625 
*END

*D_NET *291 0.515605
*CONN
*P la_data_out[29] O
*P wbs_dat_o[29] O
*I *537:module_status_flags_out[29] O *D phase_099_top_integration
*CAP
1 la_data_out[29] 0.00103928
2 wbs_dat_o[29] 0.000866075
3 *537:module_status_flags_out[29] 0.000807076
4 *291:35 0.0131196
5 *291:33 0.0132928
6 *291:31 0.0522521
7 *291:29 0.0533165
8 *291:19 0.0135067
9 *291:17 0.0124423
10 *291:15 0.017295
11 *291:13 0.017295
12 *291:11 0.0204636
13 *291:9 0.0212707
14 la_data_out[29] *292:41 0.000353637
15 *291:9 *351:15 0
16 *291:11 *329:11 0.00209769
17 *291:11 *333:11 5.85822e-06
18 *291:11 *363:19 0.0082011
19 *291:19 *296:29 0
20 *291:31 *296:133 0
21 *291:31 *296:141 0
22 *291:31 *299:197 0
23 *291:35 *292:41 0.0521839
24 *291:35 *364:23 0.000337556
25 la_data_out[27] *291:35 6.39554e-05
26 *61:29 *291:9 0
27 *71:5 *291:15 0.051923
28 *126:11 *291:11 0.00670137
29 *249:17 *291:35 0.00244624
30 *277:11 *291:11 0.0193365
31 *279:11 *291:11 0.00101352
32 *281:11 *291:11 0
33 *284:13 *291:29 0.000789349
34 *285:21 *291:29 0.0028622
35 *285:31 *291:35 0.000944128
36 *289:11 *291:11 0.00163432
37 *289:27 *291:35 0.011355
38 *290:11 *291:11 0.000255419
39 *290:15 *291:15 0.099273
40 *290:19 *291:19 0.00909722
41 *290:33 *291:35 0.00776342
*RES
1 *537:module_status_flags_out[29] *291:9 27.7496 
2 *291:9 *291:11 633.795 
3 *291:11 *291:13 15 
4 *291:13 *291:15 1260.82 
5 *291:15 *291:17 15 
6 *291:17 *291:19 272.186 
7 *291:19 *291:29 42.6014 
8 *291:29 *291:31 1170.84 
9 *291:31 *291:33 15 
10 *291:33 *291:35 577.576 
11 *291:35 wbs_dat_o[29] 29.6864 
12 *291:33 la_data_out[29] 33.6429 
*END

*D_NET *292 0.82494
*CONN
*P wbs_dat_o[30] O
*P la_data_out[30] O
*I *537:module_status_flags_out[30] O *D phase_099_top_integration
*CAP
1 wbs_dat_o[30] 0.000847216
2 la_data_out[30] 0.000886976
3 *537:module_status_flags_out[30] 0.000612298
4 *292:41 0.00882989
5 *292:39 0.00798267
6 *292:31 0.000933985
7 *292:27 0.0143115
8 *292:25 0.0145524
9 *292:19 0.0062807
10 *292:17 0.00599278
11 *292:15 0.0280602
12 *292:13 0.0280602
13 *292:11 0.00194116
14 *292:9 0.00255346
15 *292:9 *320:9 0.000219074
16 *292:11 *332:13 0.00342541
17 *292:15 *295:29 2.12347e-06
18 *292:15 *295:31 0.0122601
19 *292:15 *298:15 8.24435e-05
20 *292:15 *320:15 0
21 *292:15 *326:15 0.000132085
22 *292:15 *332:15 0.191402
23 *292:15 *345:15 0.190694
24 *292:19 *330:19 0
25 *292:19 *332:19 0.00168506
26 *292:19 *338:42 0
27 *292:19 *340:22 0
28 *292:19 *350:21 0.0191004
29 *292:25 la_data_out[69] 0
30 *292:27 la_data_out[37] 0.000906828
31 *292:27 *293:29 0.00160184
32 *292:27 *294:13 0.0519013
33 *292:27 *294:23 0.0120657
34 la_data_out[29] *292:41 0.000353637
35 *61:21 *292:11 0.0152269
36 *63:21 *292:11 0.0152269
37 *76:15 *292:15 0.00275611
38 *76:19 *292:15 0.00206937
39 *216:25 *292:41 0.00875879
40 *238:25 *292:41 0.0016774
41 *249:17 *292:27 0.0674166
42 *249:17 *292:41 0.00342163
43 *285:29 *292:41 0.000232049
44 *285:31 *292:41 0.0422701
45 *290:33 *292:41 0.00602179
46 *291:35 *292:41 0.0521839
*RES
1 *537:module_status_flags_out[30] *292:9 26.1961 
2 *292:9 *292:11 166.419 
3 *292:11 *292:13 15 
4 *292:13 *292:15 2433.1 
5 *292:15 *292:17 15 
6 *292:17 *292:19 208.821 
7 *292:19 *292:25 27.8989 
8 *292:25 *292:27 128.684 
9 *292:27 *292:31 8.67321 
10 *292:31 la_data_out[30] 14.3343 
11 *292:31 *292:39 15 
12 *292:39 *292:41 581.864 
13 *292:41 wbs_dat_o[30] 29.3343 
*END

*D_NET *293 0.425759
*CONN
*P wbs_dat_o[31] O
*P la_data_out[31] O
*I *537:module_status_flags_out[31] O *D phase_099_top_integration
*CAP
1 wbs_dat_o[31] 0.000931944
2 la_data_out[31] 0.00109581
3 *537:module_status_flags_out[31] 0.000152036
4 *293:29 0.0149664
5 *293:27 0.0140345
6 *293:17 0.00439374
7 *293:15 0.00329793
8 *293:13 0.0496473
9 *293:11 0.0496473
10 *293:9 0.0306942
11 *293:7 0.0308462
12 *293:9 *298:23 0.0186072
13 *293:9 *302:9 0.0922774
14 *293:9 *326:15 0
15 *293:29 la_data_out[37] 0.00137705
16 *205:9 *293:29 0
17 *249:17 *293:29 0.00168119
18 *275:11 *293:9 0.00732239
19 *288:31 *293:29 0.0461806
20 *289:27 *293:29 0.0073822
21 *289:37 wbs_dat_o[31] 0
22 *290:33 *293:29 0.0496221
23 *292:27 *293:29 0.00160184
*RES
1 *537:module_status_flags_out[31] *293:7 8.24267 
2 *293:7 *293:9 1172.78 
3 *293:9 *293:11 8 
4 *293:11 *293:13 163.804 
5 *293:13 *293:15 8 
6 *293:15 *293:17 71.9821 
7 *293:17 la_data_out[31] 17.6175 
8 *293:17 *293:27 8 
9 *293:27 *293:29 104.556 
10 *293:29 wbs_dat_o[31] 23.5668 
*END

*D_NET *294 0.441892
*CONN
*P user_irq[0] O
*P la_data_out[32] O
*I *537:module_status_flags_out[32] O *D phase_099_top_integration
*CAP
1 user_irq[0] 0.000702594
2 la_data_out[32] 0.000956213
3 *537:module_status_flags_out[32] 9.62404e-05
4 *294:23 0.0387478
5 *294:13 0.0123595
6 *294:11 0.0494485
7 *294:9 0.0512595
8 *294:7 0.0513557
9 *294:9 la_data_out[62] 0
10 *294:9 *317:107 0.00075989
11 *294:13 la_data_out[37] 0.00871401
12 *294:13 *298:47 0.00169225
13 *294:23 *298:35 0.00186136
14 *294:23 *298:39 0.00419878
15 *294:23 *455:9 0.00528344
16 *193:9 *294:23 0.0110349
17 *227:17 *294:13 0.0372926
18 *227:17 *294:23 0.0713054
19 *249:17 *294:23 0.0308568
20 *276:11 *294:7 0
21 *276:11 *294:9 0
22 *292:27 *294:13 0.0519013
23 *292:27 *294:23 0.0120657
*RES
1 *537:module_status_flags_out[32] *294:7 1.86429 
2 *294:7 *294:9 1183.34 
3 *294:9 *294:11 8 
4 *294:11 *294:13 99.0603 
5 *294:13 la_data_out[32] 23.5668 
6 *294:11 *294:23 218.844 
7 *294:23 user_irq[0] 23.5668 
*END

*D_NET *295 0.792172
*CONN
*P user_irq[1] O
*P la_data_out[33] O
*I *537:module_status_flags_out[33] O *D phase_099_top_integration
*CAP
1 user_irq[1] 0.000640714
2 la_data_out[33] 0.000889187
3 *537:module_status_flags_out[33] 0.00343347
4 *295:53 0.0260657
5 *295:43 0.0205192
6 *295:41 0.045334
7 *295:31 0.0760395
8 *295:29 0.0763247
9 *295:19 0.00154436
10 *295:17 0.00100475
11 *295:11 0.00345803
12 *295:11 *316:9 0
13 *295:11 *316:11 0.00212551
14 *295:11 *320:13 0.00829324
15 *295:11 *329:11 0.00245392
16 *295:11 *332:9 0
17 *295:11 *332:13 0.0019148
18 *295:19 *315:11 0.00652103
19 *295:19 *320:13 0.00142276
20 *295:19 *329:11 0.00741398
21 *295:29 *326:11 5.43555e-05
22 *295:29 *330:11 2.75955e-05
23 *295:29 *330:15 0.000104209
24 *295:29 *332:15 3.32226e-05
25 *295:29 *341:13 7.60892e-05
26 *295:31 *298:23 0.125151
27 *295:31 *309:35 0
28 *295:31 *317:31 0.00877632
29 *295:31 *320:15 0.00855779
30 *295:31 *326:15 0.022061
31 *295:31 *330:15 0.0199049
32 *295:31 *332:15 0.00995246
33 *295:31 *345:15 0.0134981
34 *295:41 *298:33 4.62843e-05
35 *295:41 *331:15 0
36 *295:41 *345:15 7.55653e-05
37 *295:43 *298:39 0.00381798
38 *295:43 *331:23 0.0211214
39 *295:53 *296:227 0.0013999
40 *295:53 *329:19 0
41 *295:53 *331:23 0.000368431
42 *295:53 *455:9 0.00241023
43 *31:9 *295:29 0
44 *31:9 *295:31 0.000684611
45 *31:13 *295:11 0.0117926
46 *61:9 *295:31 0.0228101
47 *61:21 *295:19 0.00049795
48 *64:13 *295:29 0
49 *76:15 *295:31 0.00688187
50 *76:19 *295:31 0.0115362
51 *76:21 *295:31 0.0251705
52 *191:19 *295:53 0.0173117
53 *193:9 *295:53 0.00886733
54 *205:17 *295:41 2.28878e-05
55 *216:25 *295:43 0.0811962
56 *216:25 *295:53 0.0372885
57 *238:25 *295:53 0.00138217
58 *249:17 *295:43 0.0176407
59 *271:25 *295:53 0.00607722
60 *275:9 *295:31 0.000248617
61 *275:11 *295:31 0.00766417
62 *292:15 *295:29 2.12347e-06
63 *292:15 *295:31 0.0122601
*RES
1 *537:module_status_flags_out[33] *295:11 44.3251 
2 *295:11 *295:17 23.3211 
3 *295:17 *295:19 79.2321 
4 *295:19 *295:29 35.8088 
5 *295:29 *295:31 438.23 
6 *295:31 *295:41 35.2936 
7 *295:41 *295:43 868.674 
8 *295:43 la_data_out[33] 29.3343 
9 *295:41 *295:53 882.491 
10 *295:53 user_irq[1] 29.3343 
*END

*D_NET *296 0.770791
*CONN
*P user_irq[2] O
*P la_data_out[34] O
*I *537:module_status_flags_out[34] O *D phase_099_top_integration
*CAP
1 user_irq[2] 0.000572084
2 la_data_out[34] 0.000816038
3 *537:module_status_flags_out[34] 7.70323e-05
4 *296:227 0.0520366
5 *296:225 0.0514645
6 *296:213 0.00564095
7 *296:211 0.00518883
8 *296:205 0.00289172
9 *296:203 0.00290668
10 *296:197 0.00427545
11 *296:195 0.00389657
12 *296:193 0.00154739
13 *296:183 0.00244634
14 *296:177 0.00972272
15 *296:175 0.00951475
16 *296:165 0.00290155
17 *296:163 0.00257451
18 *296:157 0.00191267
19 *296:155 0.00238198
20 *296:149 0.00269331
21 *296:147 0.00207672
22 *296:141 0.00351411
23 *296:139 0.00367349
24 *296:133 0.00243102
25 *296:131 0.00277022
26 *296:125 0.00231643
27 *296:123 0.00205353
28 *296:117 0.00201199
29 *296:115 0.00217655
30 *296:109 0.00125039
31 *296:105 0.00176136
32 *296:97 0.00666934
33 *296:95 0.00652044
34 *296:91 0.00118825
35 *296:85 0.00204013
36 *296:83 0.00183081
37 *296:81 0.002957
38 *296:79 0.00366349
39 *296:69 0.00258307
40 *296:67 0.00245975
41 *296:57 0.00154063
42 *296:53 0.00250657
43 *296:49 0.0021157
44 *296:47 0.00151288
45 *296:37 0.00198864
46 *296:29 0.00502681
47 *296:27 0.00398447
48 *296:25 0.000975629
49 *296:17 0.0185788
50 *296:15 0.0181692
51 *296:9 0.0216977
52 *296:7 0.0212087
53 *296:9 *344:11 0.000331274
54 *296:9 *344:19 0.00581003
55 *296:9 *353:11 0.0190289
56 *296:17 *299:21 0.0965605
57 *296:25 *299:33 8.12704e-05
58 *296:37 *308:45 0.00183161
59 *296:49 *308:47 0.00281034
60 io_oeb[4] *296:85 0.00152231
61 *537:rf_adc_i_in[1] *296:7 1.57662e-05
62 *537:rf_adc_q_in[10] *296:17 0
63 *537:rf_adc_q_in[7] *296:29 0.000277582
64 *76:9 *296:29 0.000340525
65 *77:5 *296:37 0.000258943
66 *78:5 *296:49 0.000964664
67 *94:5 *296:197 0.00330816
68 *144:21 *296:109 0.00165133
69 *191:19 *296:227 0.0182546
70 *192:9 *296:227 0.0694481
71 *260:25 *296:227 0.123605
72 *274:11 *296:9 0.00623769
73 *281:15 *296:17 0.0963376
74 *283:17 *296:57 0
75 *290:23 *296:125 0
76 *291:19 *296:29 0
77 *291:31 *296:133 0
78 *291:31 *296:141 0
79 *295:53 *296:227 0.0013999
*RES
1 *537:module_status_flags_out[34] *296:7 16.305 
2 *296:7 *296:9 527.313 
3 *296:9 *296:15 23.6171 
4 *296:15 *296:17 1242.86 
5 *296:17 *296:25 48.2079 
6 *296:25 *296:27 15 
7 *296:27 *296:29 86.855 
8 *296:29 *296:37 47.6043 
9 *296:37 *296:47 48.8914 
10 *296:47 *296:49 35.7114 
11 *296:49 *296:53 46.5893 
12 *296:53 *296:57 36.2736 
13 *296:57 *296:67 41.745 
14 *296:67 *296:69 42.7543 
15 *296:69 *296:79 45.08 
16 *296:79 *296:81 68.1086 
17 *296:81 *296:83 15 
18 *296:83 *296:85 37.7829 
19 *296:85 *296:91 34.3707 
20 *296:91 *296:95 34.6786 
21 *296:95 *296:97 127.621 
22 *296:97 *296:105 38.055 
23 *296:105 *296:109 36.2736 
24 *296:109 *296:115 42.0557 
25 *296:115 *296:117 36.0636 
26 *296:117 *296:123 39.1971 
27 *296:123 *296:125 35.3593 
28 *296:125 *296:131 44.4379 
29 *296:131 *296:133 46.98 
30 *296:133 *296:139 37.2914 
31 *296:139 *296:141 75.1514 
32 *296:141 *296:147 34.4329 
33 *296:147 *296:149 43.1064 
34 *296:149 *296:155 47.2964 
35 *296:155 *296:157 35.3593 
36 *296:157 *296:163 37.2914 
37 *296:163 *296:165 50.5014 
38 *296:165 *296:175 45.08 
39 *296:175 *296:177 203.684 
40 *296:177 *296:183 49.6786 
41 *296:183 *296:193 49.7379 
42 *296:193 *296:195 15 
43 *296:195 *296:197 121.282 
44 *296:197 *296:203 37.2914 
45 *296:203 *296:205 57.1921 
46 *296:205 *296:211 37.2914 
47 *296:211 *296:213 107.196 
48 *296:213 la_data_out[34] 13.6921 
49 *296:213 *296:225 15 
50 *296:225 *296:227 1738.63 
51 *296:227 user_irq[2] 27.9257 
*END

*D_NET *297 0.201638
*CONN
*P la_data_out[35] O
*I *537:module_status_flags_out[35] O *D phase_099_top_integration
*CAP
1 la_data_out[35] 0.0518047
2 *537:module_status_flags_out[35] 0.000432389
3 *297:23 0.0556391
4 *297:19 0.00419495
5 *297:13 0.0157947
6 *297:11 0.0158665
7 *297:13 *300:15 0.00059858
8 *297:13 *303:13 0.00112352
9 *297:13 *304:19 0
10 *297:13 *310:15 0.000623098
11 *297:13 *311:13 0.00545512
12 *297:13 *314:19 0
13 *297:19 la_data_out[43] 0
14 *284:13 *297:23 0.00397871
15 *285:13 *297:13 0.0315605
16 *285:21 *297:23 0.0145667
*RES
1 *537:module_status_flags_out[35] *297:11 24.2282 
2 *297:11 *297:13 457.993 
3 *297:13 *297:19 29.3075 
4 *297:19 *297:23 35.0181 
5 *297:23 la_data_out[35] 1185.39 
*END

*D_NET *298 0.57093
*CONN
*P la_data_out[36] O
*I *537:module_status_flags_out[36] O *D phase_099_top_integration
*CAP
1 la_data_out[36] 0.00108667
2 *537:module_status_flags_out[36] 0.000673724
3 *298:47 0.00552692
4 *298:39 0.0256574
5 *298:37 0.0212425
6 *298:35 0.00193325
7 *298:33 0.00239548
8 *298:23 0.0448249
9 *298:21 0.044493
10 *298:15 0.00920356
11 *298:13 0.00904795
12 *298:11 0.00162984
13 *298:9 0.00230357
14 *298:9 *334:13 0
15 *298:11 *330:11 0.00123317
16 *298:11 *357:11 0.00444914
17 *298:15 *320:15 0.0621895
18 *298:15 *326:15 0.0619352
19 *298:21 *302:7 3.88515e-05
20 *298:23 *302:9 0.0218803
21 *298:23 *317:31 0.00324966
22 *298:33 *330:15 0.000172695
23 *298:33 *332:19 5.30238e-05
24 *298:33 *356:13 0
25 *298:35 *329:19 0.00472571
26 *298:35 *331:23 0.00313252
27 *298:35 *345:21 0.000232049
28 *298:39 *329:19 0.0155766
29 *298:39 *331:23 0.00296249
30 *298:47 la_data_out[37] 0.000870323
31 *298:47 la_data_out[43] 0
32 *52:21 *298:11 0.00749987
33 *61:9 *298:23 0.0422039
34 *205:9 *298:47 0.00317526
35 *205:15 *298:47 0.00068752
36 *205:17 *298:33 6.81484e-05
37 *227:17 *298:39 0.00711101
38 *227:17 *298:47 0.00200658
39 *292:15 *298:15 8.24435e-05
40 *293:9 *298:23 0.0186072
41 *294:13 *298:47 0.00169225
42 *294:23 *298:35 0.00186136
43 *294:23 *298:39 0.00419878
44 *295:31 *298:23 0.125151
45 *295:41 *298:33 4.62843e-05
46 *295:43 *298:39 0.00381798
*RES
1 *537:module_status_flags_out[36] *298:9 26.1132 
2 *298:9 *298:11 82.0907 
3 *298:11 *298:13 15 
4 *298:13 *298:15 790.177 
5 *298:15 *298:21 16.2707 
6 *298:21 *298:23 295.811 
7 *298:23 *298:33 35.2762 
8 *298:33 *298:35 93.2868 
9 *298:35 *298:37 0.497143 
10 *298:37 *298:39 593.537 
11 *298:39 *298:47 47.1968 
12 *298:47 la_data_out[36] 25.6796 
*END

*D_NET *299 0.429206
*CONN
*P la_data_out[37] O
*I *537:module_status_flags_out[37] O *D phase_099_top_integration
*CAP
1 la_data_out[37] 0.0051263
2 *537:module_status_flags_out[37] 0.00200992
3 *299:205 0.00707547
4 *299:197 0.00328881
5 *299:191 0.00284063
6 *299:185 0.00179811
7 *299:179 0.00358206
8 *299:177 0.00507528
9 *299:165 0.00317028
10 *299:151 0.00317156
11 *299:149 0.00237274
12 *299:143 0.00797652
13 *299:141 0.0082096
14 *299:135 0.00265813
15 *299:127 0.00492365
16 *299:121 0.0086369
17 *299:119 0.00602185
18 *299:113 0.004184
19 *299:111 0.00461385
20 *299:105 0.0048833
21 *299:103 0.00524415
22 *299:89 0.0032398
23 *299:81 0.00404882
24 *299:73 0.00993733
25 *299:71 0.00941899
26 *299:57 0.00390329
27 *299:47 0.00417457
28 *299:33 0.00368695
29 *299:21 0.0380926
30 *299:19 0.036223
31 *299:17 0.0198627
32 *299:15 0.0218726
33 *299:15 *338:10 0.00272798
34 *299:15 *353:11 0.00062091
35 *299:17 *325:16 0.00123917
36 *299:17 *338:10 0.000759016
37 *299:17 *344:19 0.0142575
38 *299:21 *537:clk_2p4g 6.61056e-05
39 *299:57 *355:13 0
40 *299:71 *364:13 0
41 io_oeb[0] *299:177 0.00109474
42 io_oeb[37] *299:205 0.00271022
43 *537:rf_adc_i_in[5] *299:15 2.72383e-05
44 *537:rf_adc_q_in[5] *299:33 0.00110988
45 *77:5 *299:81 0.000630483
46 *78:5 *299:103 0
47 *81:5 *299:121 0
48 *88:5 *299:197 0
49 *89:9 *299:185 5.07439e-05
50 *91:5 *299:205 0
51 *92:9 *299:165 0.000200057
52 *101:9 *299:177 0.00029936
53 *102:9 *299:177 0.000166851
54 *103:9 *299:177 0.000165373
55 *105:9 *299:165 6.53257e-05
56 *130:10 *299:17 0.0101066
57 *133:13 *299:111 0.00208811
58 *144:21 *299:165 0.000803434
59 *205:9 la_data_out[37] 0.00135972
60 *274:11 *299:15 0.00134112
61 *275:15 *299:47 0.000243068
62 *276:13 *299:47 0.00111375
63 *277:27 *299:33 0.000913987
64 *277:29 *299:47 0.000887029
65 *279:37 *299:73 0
66 *280:17 *299:81 0
67 *281:33 *299:33 2.0074e-05
68 *281:37 *299:89 0
69 *281:37 *299:103 0.000382013
70 *283:17 *299:121 0.0160399
71 *288:17 *299:151 0.0051048
72 *290:23 *299:179 0
73 *290:23 *299:191 0.00277808
74 *291:31 *299:197 0
75 *292:27 la_data_out[37] 0.000906828
76 *293:29 la_data_out[37] 0.00137705
77 *294:13 la_data_out[37] 0.00871401
78 *296:17 *299:21 0.0965605
79 *296:25 *299:33 8.12704e-05
80 *298:47 la_data_out[37] 0.000870323
*RES
1 *537:module_status_flags_out[37] *299:15 19.3498 
2 *299:15 *299:17 95.4968 
3 *299:17 *299:19 8 
4 *299:19 *299:21 1241.1 
5 *299:21 *299:33 43.8377 
6 *299:33 *299:47 49.8797 
7 *299:47 *299:57 46.6718 
8 *299:57 *299:71 45.1679 
9 *299:71 *299:73 181.851 
10 *299:73 *299:81 42.4989 
11 *299:81 *299:89 46.3474 
12 *299:89 *299:103 48.9187 
13 *299:103 *299:105 89.5893 
14 *299:105 *299:111 19.92 
15 *299:111 *299:113 83.2507 
16 *299:113 *299:119 17.4299 
17 *299:119 *299:121 203.684 
18 *299:121 *299:127 26.6176 
19 *299:127 *299:135 42.8786 
20 *299:135 *299:141 19.0613 
21 *299:141 *299:143 170.582 
22 *299:143 *299:149 17.4299 
23 *299:149 *299:151 64.9393 
24 *299:151 *299:165 48.0586 
25 *299:165 *299:177 48.5453 
26 *299:177 *299:179 72.6864 
27 *299:179 *299:185 16.8288 
28 *299:185 *299:191 45.2185 
29 *299:191 *299:197 46.4293 
30 *299:197 *299:205 37.5516 
31 *299:205 la_data_out[37] 47.0817 
*END

*D_NET *300 0.131894
*CONN
*P la_data_out[38] O
*I *537:module_status_flags_out[38] O *D phase_099_top_integration
*CAP
1 la_data_out[38] 0.0534304
2 *537:module_status_flags_out[38] 0.00414592
3 *300:15 0.0575763
4 *300:15 *303:13 0.00696695
5 *300:15 *305:13 0.00350142
6 *300:15 *307:31 0.000337629
7 *76:9 *300:15 0
8 *280:13 *300:15 0.00208458
9 *287:13 *300:15 0.00325242
10 *297:13 *300:15 0.00059858
*RES
1 *537:module_status_flags_out[38] *300:15 48.9964 
2 *300:15 la_data_out[38] 1191.02 
*END

*D_NET *301 0.112711
*CONN
*P la_data_out[39] O
*I *537:module_status_flags_out[39] O *D phase_099_top_integration
*CAP
1 la_data_out[39] 0.00258863
2 *537:module_status_flags_out[39] 8.51169e-05
3 *301:9 0.0544512
4 *301:7 0.0519477
5 la_data_out[39] *324:13 9.6847e-05
6 *301:7 *358:7 0
7 *301:9 *358:9 0
8 *194:9 la_data_out[39] 0
9 *227:9 la_data_out[39] 0.00354148
*RES
1 *537:module_status_flags_out[39] *301:7 1.86429 
2 *301:7 *301:9 1177.71 
3 *301:9 la_data_out[39] 43.7829 
*END

*D_NET *302 0.31703
*CONN
*P la_data_out[40] O
*I *537:module_status_flags_out[40] O *D phase_099_top_integration
*CAP
1 la_data_out[40] 0.00330944
2 *537:module_status_flags_out[40] 0.0001552
3 *302:15 0.00330944
4 *302:13 0.0399113
5 *302:11 0.0399113
6 *302:9 0.0445524
7 *302:7 0.0447076
8 *302:9 *317:31 0.0157695
9 *302:9 *326:15 0
10 *302:9 *331:15 0
11 *302:13 *308:165 0.00269076
12 *302:13 *312:121 0.000229845
13 *275:11 *302:9 0.00828693
14 *293:9 *302:9 0.0922774
15 *298:21 *302:7 3.88515e-05
16 *298:23 *302:9 0.0218803
*RES
1 *537:module_status_flags_out[40] *302:7 8.32853 
2 *302:7 *302:9 1596.06 
3 *302:9 *302:11 8 
4 *302:11 *302:13 133.836 
5 *302:13 *302:15 8 
6 *302:15 la_data_out[40] 65.5711 
*END

*D_NET *303 0.159758
*CONN
*P la_data_out[41] O
*I *537:module_status_flags_out[41] O *D phase_099_top_integration
*CAP
1 la_data_out[41] 0.0534725
2 *537:module_status_flags_out[41] 0.000427531
3 *303:15 0.0534725
4 *303:13 0.0102988
5 *303:11 0.0107263
6 *303:13 *305:13 0.00259101
7 *303:13 *310:15 0.00330596
8 *303:13 *311:13 0.013479
9 *76:9 *303:13 0.00389412
10 *297:13 *303:13 0.00112352
11 *300:15 *303:13 0.00696695
*RES
1 *537:module_status_flags_out[41] *303:11 17.0521 
2 *303:11 *303:13 55.3541 
3 *303:13 *303:15 8 
4 *303:15 la_data_out[41] 1191.72 
*END

*D_NET *304 0.502288
*CONN
*P la_data_out[42] O
*I *537:module_status_flags_out[42] O *D phase_099_top_integration
*CAP
1 la_data_out[42] 0.0532637
2 *537:module_status_flags_out[42] 7.58549e-05
3 *304:21 0.0532637
4 *304:19 0.0248707
5 *304:17 0.0248707
6 *304:15 0.0143423
7 *304:13 0.0143423
8 *304:11 0.00812894
9 *304:9 0.0082048
10 la_data_out[42] *308:149 0
11 *304:11 *314:11 0.0261423
12 *304:11 *353:11 0
13 *304:15 la_data_out[81] 0.0985452
14 *304:15 *323:25 0.0985367
15 *304:15 *338:30 0.00552772
16 *304:19 *313:15 0.00111908
17 *304:19 *314:19 0.0486592
18 *304:19 *327:15 0.000744277
19 *304:19 *359:13 0.00495783
20 *304:19 *455:17 0
21 *67:17 *304:11 0.00479758
22 *131:9 *304:15 0.00752751
23 *284:13 *304:19 0.00239374
24 *285:13 *304:19 0
25 *287:13 *304:19 0.00197416
26 *297:13 *304:19 0
*RES
1 *537:module_status_flags_out[42] *304:9 16.1082 
2 *304:9 *304:11 279.809 
3 *304:11 *304:13 15 
4 *304:13 *304:15 1252.36 
5 *304:15 *304:17 15 
6 *304:17 *304:19 715.741 
7 *304:19 *304:21 15 
8 *304:21 la_data_out[42] 1188.03 
*END

*D_NET *305 0.199703
*CONN
*P la_data_out[43] O
*I *537:module_status_flags_out[43] O *D phase_099_top_integration
*CAP
1 la_data_out[43] 0.052094
2 *537:module_status_flags_out[43] 0.000516873
3 *305:15 0.052094
4 *305:13 0.00917626
5 *305:11 0.00969313
6 la_data_out[43] *308:157 0
7 *305:11 *359:11 0
8 *305:13 *310:15 0.00330596
9 *305:13 *311:13 0.0292266
10 *305:13 *321:26 0.0135285
11 *284:13 *305:13 0.00174735
12 *287:13 *305:13 0.0214607
13 *288:13 *305:13 0.000767594
14 *297:19 la_data_out[43] 0
15 *298:47 la_data_out[43] 0
16 *300:15 *305:13 0.00350142
17 *303:13 *305:13 0.00259101
*RES
1 *537:module_status_flags_out[43] *305:11 18.4607 
2 *305:11 *305:13 78.7957 
3 *305:13 *305:15 8 
4 *305:15 la_data_out[43] 1190.32 
*END

*D_NET *306 0.105362
*CONN
*P la_data_out[44] O
*I *537:module_status_flags_out[44] O *D phase_099_top_integration
*CAP
1 la_data_out[44] 0.000102007
2 *537:module_status_flags_out[44] 8.48806e-05
3 *306:9 0.0525963
4 *306:7 0.0525791
*RES
1 *537:module_status_flags_out[44] *306:7 1.86429 
2 *306:7 *306:9 1198.84 
3 *306:9 la_data_out[44] 1.50179 
*END

*D_NET *307 0.497245
*CONN
*P la_data_out[45] O
*I *537:module_status_flags_out[45] O *D phase_099_top_integration
*CAP
1 la_data_out[45] 0.0495377
2 *537:module_status_flags_out[45] 0.000752254
3 *307:33 0.0495831
4 *307:31 0.0029227
5 *307:29 0.0105373
6 *307:19 0.0196619
7 *307:17 0.0120018
8 *307:15 0.0181211
9 *307:13 0.0181211
10 *307:11 0.00275155
11 *307:9 0.0035038
12 *307:11 *330:11 0.00428673
13 *307:15 *331:15 0.000526529
14 *307:15 *338:38 7.74897e-05
15 *307:15 *340:18 0.096089
16 *307:15 *341:15 0.0970892
17 *307:19 *315:23 0
18 *307:19 *320:19 0.00891969
19 *307:19 *320:33 0.0012118
20 *307:19 *341:29 0.00219419
21 *307:29 *315:23 0
22 *307:29 *315:33 0.00291799
23 *307:29 *316:19 0
24 *30:21 *307:11 0.0204745
25 *38:9 *307:19 0.0438691
26 *38:9 *307:29 0.0112823
27 *41:21 *307:11 0.0204745
28 *300:15 *307:31 0.000337629
*RES
1 *537:module_status_flags_out[45] *307:9 27.1696 
2 *307:9 *307:11 224.066 
3 *307:11 *307:13 15 
4 *307:13 *307:15 1251.84 
5 *307:15 *307:17 8 
6 *307:17 *307:19 81.4147 
7 *307:19 *307:29 44.7565 
8 *307:29 *307:31 65.0221 
9 *307:31 *307:33 1.09786 
10 *307:33 la_data_out[45] 1134.59 
*END

*D_NET *308 0.458812
*CONN
*P la_data_out[46] O
*I *537:module_status_flags_out[46] O *D phase_099_top_integration
*CAP
1 la_data_out[46] 0.0033611
2 *537:module_status_flags_out[46] 0.000322154
3 *308:165 0.00428854
4 *308:161 0.00259046
5 *308:157 0.0043192
6 *308:149 0.00498995
7 *308:141 0.0036309
8 *308:135 0.00436954
9 *308:133 0.00390883
10 *308:127 0.0145585
11 *308:125 0.0137221
12 *308:123 0.00267817
13 *308:117 0.00374967
14 *308:111 0.00461298
15 *308:109 0.00641855
16 *308:105 0.00428366
17 *308:101 0.00261838
18 *308:95 0.00709367
19 *308:93 0.00864574
20 *308:85 0.00836847
21 *308:79 0.00787248
22 *308:77 0.00336301
23 *308:71 0.0026591
24 *308:63 0.00357555
25 *308:61 0.00616541
26 *308:55 0.00542696
27 *308:53 0.00220392
28 *308:47 0.00381227
29 *308:45 0.0041273
30 *308:37 0.00396259
31 *308:31 0.0122608
32 *308:29 0.00981371
33 *308:23 0.0276971
34 *308:21 0.0293957
35 *308:11 0.0123952
36 *308:9 0.0107491
37 *308:11 *317:19 0.00214353
38 *308:11 *322:27 0.0257368
39 *308:79 *464:13 0.00201568
40 *308:123 *324:9 0
41 io_oeb[2] *308:117 0
42 io_oeb[33] *308:77 0.000858942
43 io_oeb[4] *308:71 0.000210781
44 la_data_out[42] *308:149 0
45 la_data_out[43] *308:157 0
46 *537:rf_adc_i_in[0] *308:9 0
47 *537:rf_adc_q_in[7] *308:37 0.00140477
48 *537:rf_adc_q_in[8] *308:37 0.00328534
49 *537:rf_adc_q_in[9] *308:37 0.00015038
50 *38:9 *308:37 0.00132112
51 *72:9 *308:141 0.000516036
52 *76:9 *308:37 0.00168434
53 *77:5 *308:45 0.0020255
54 *77:17 *308:37 2.07731e-06
55 *77:21 *308:23 0
56 *78:5 *308:47 0
57 *80:27 *308:31 0.0194429
58 *94:5 *308:95 0.005116
59 *105:9 *308:133 0
60 *127:16 *308:21 0
61 *135:11 *308:11 0.0502508
62 *275:15 *308:45 0.000288029
63 *276:13 *308:45 0.00021135
64 *279:35 *308:37 3.46729e-05
65 *281:37 *308:47 0
66 *282:17 *308:55 0.00367048
67 *287:17 *308:71 0
68 *289:15 *308:23 0.0767566
69 *289:15 *308:31 0.000342359
70 *290:19 *308:37 0
71 *296:37 *308:45 0.00183161
72 *296:49 *308:47 0.00281034
73 *302:13 *308:165 0.00269076
*RES
1 *537:module_status_flags_out[46] *308:9 13.8621 
2 *308:9 *308:11 92.9208 
3 *308:11 *308:21 29.8688 
4 *308:21 *308:23 175.224 
5 *308:23 *308:29 16.5712 
6 *308:29 *308:31 47.656 
7 *308:31 *308:37 31.6408 
8 *308:37 *308:45 45.3508 
9 *308:45 *308:47 78.3207 
10 *308:47 *308:53 18.7179 
11 *308:53 *308:55 46.6279 
12 *308:55 *308:61 30.1381 
13 *308:61 *308:63 46.6279 
14 *308:63 *308:71 42.8259 
15 *308:71 *308:77 20.5211 
16 *308:77 *308:79 71.9821 
17 *308:79 *308:85 34.088 
18 *308:85 *308:93 46.003 
19 *308:93 *308:95 186.076 
20 *308:95 *308:101 20.6069 
21 *308:101 *308:105 40.5421 
22 *308:105 *308:109 17.6731 
23 *308:109 *308:111 81.8421 
24 *308:111 *308:117 19.3189 
25 *308:117 *308:123 48.0009 
26 *308:123 *308:125 8 
27 *308:125 *308:127 317.778 
28 *308:127 *308:133 18.632 
29 *308:133 *308:135 68.4607 
30 *308:135 *308:141 21.208 
31 *308:141 *308:149 49.6624 
32 *308:149 *308:157 42.4642 
33 *308:157 *308:161 46.1764 
34 *308:161 *308:165 12.9504 
35 *308:165 la_data_out[46] 66.2754 
*END

*D_NET *309 0.48476
*CONN
*P la_data_out[47] O
*I *537:module_status_flags_out[47] O *D phase_099_top_integration
*CAP
1 la_data_out[47] 0.00120487
2 *537:module_status_flags_out[47] 0.000243888
3 *309:147 0.0172645
4 *309:145 0.0164501
5 *309:139 0.00400378
6 *309:137 0.00361334
7 *309:135 0.00567244
8 *309:133 0.00621312
9 *309:129 0.00140163
10 *309:125 0.00139616
11 *309:119 0.0211706
12 *309:117 0.0209824
13 *309:111 0.00238534
14 *309:109 0.00272088
15 *309:103 0.00338364
16 *309:101 0.00270113
17 *309:99 0.00137619
18 *309:95 0.00684945
19 *309:93 0.00617475
20 *309:87 0.00471444
21 *309:85 0.00436105
22 *309:79 0.00417118
23 *309:77 0.00474179
24 *309:69 0.00219723
25 *309:65 0.00188755
26 *309:59 0.00123879
27 *309:51 0.00221215
28 *309:49 0.00189802
29 *309:45 0.00210669
30 *309:35 0.0117901
31 *309:33 0.0104974
32 *309:27 0.00135657
33 *309:15 0.018104
34 *309:13 0.0172457
35 *309:11 0.00728646
36 *309:9 0.00753035
37 *309:11 *312:9 0.00800719
38 *309:11 *344:11 0.00960839
39 *309:11 *351:19 0.0487767
40 *309:11 *352:21 0.0316976
41 *309:15 *316:15 0.00959556
42 *309:15 *319:9 0.0571727
43 *309:15 *334:15 0.0270243
44 *309:27 *317:39 0
45 *309:27 *320:15 4.81862e-05
46 *309:27 *326:15 5.03962e-05
47 *309:33 *317:39 9.18276e-05
48 *309:35 *317:41 0.0213315
49 *309:45 *337:15 0
50 *309:95 *318:41 0.00283474
51 *309:111 la_data_out[73] 0.0017478
52 *309:129 la_data_out[72] 0.00229654
53 *309:139 *343:13 0.00256787
54 *309:145 *350:19 0
55 *309:147 *324:13 0
56 *309:147 *342:13 4.69696e-05
57 *309:147 *349:13 0
58 *309:147 *356:13 0.00363122
59 *32:9 *309:9 4.05005e-05
60 *76:15 *309:35 0
61 *76:19 *309:33 2.93912e-05
62 *76:19 *309:35 0
63 *205:17 *309:147 0.0077234
64 *282:9 *309:15 0.0218899
65 *295:31 *309:35 0
*RES
1 *537:module_status_flags_out[47] *309:9 19.2982 
2 *309:9 *309:11 534.221 
3 *309:11 *309:13 15 
4 *309:13 *309:15 986.145 
5 *309:15 *309:27 47.4458 
6 *309:27 *309:33 9.44107 
7 *309:33 *309:35 50.5755 
8 *309:35 *309:45 49.0263 
9 *309:45 *309:49 21.3386 
10 *309:49 *309:51 36.0636 
11 *309:51 *309:59 42.9257 
12 *309:59 *309:65 42.5321 
13 *309:65 *309:69 43.3164 
14 *309:69 *309:77 33.8914 
15 *309:77 *309:79 86.0679 
16 *309:79 *309:85 37.2914 
17 *309:85 *309:87 92.4064 
18 *309:87 *309:93 44.4379 
19 *309:93 *309:95 139.946 
20 *309:95 *309:99 43.7307 
21 *309:99 *309:101 15 
22 *309:101 *309:103 60.7136 
23 *309:103 *309:109 44.4379 
24 *309:109 *309:111 64.5871 
25 *309:111 *309:117 37.2914 
26 *309:117 *309:119 464.269 
27 *309:119 *309:125 40.6264 
28 *309:125 *309:129 44.3729 
29 *309:129 *309:133 26.1029 
30 *309:133 *309:135 128.677 
31 *309:135 *309:137 15 
32 *309:137 *309:139 75.4207 
33 *309:139 *309:145 30.0118 
34 *309:145 *309:147 67.2037 
35 *309:147 la_data_out[47] 27.7925 
*END

*D_NET *310 0.116926
*CONN
*P la_data_out[48] O
*I *537:module_status_flags_out[48] O *D phase_099_top_integration
*CAP
1 la_data_out[48] 0.0534604
2 *537:module_status_flags_out[48] 0.00120769
3 *310:15 0.0546681
4 *310:15 *311:23 4.06172e-06
5 *285:13 *310:15 0.000350519
6 *297:13 *310:15 0.000623098
7 *303:13 *310:15 0.00330596
8 *305:13 *310:15 0.00330596
*RES
1 *537:module_status_flags_out[48] *310:15 32.0807 
2 *310:15 la_data_out[48] 1191.02 
*END

*D_NET *311 0.1932
*CONN
*P la_data_out[49] O
*I *537:module_status_flags_out[49] O *D phase_099_top_integration
*CAP
1 la_data_out[49] 0.0518703
2 *537:module_status_flags_out[49] 0.000466522
3 *311:23 0.0527781
4 *311:13 0.0138142
5 *311:11 0.0133729
6 *311:13 *321:26 0.00401208
7 *311:13 *360:15 0.000779699
8 *76:9 *311:13 0
9 *273:13 *311:23 0
10 *284:13 *311:23 0.00173511
11 *285:13 *311:13 0.00608941
12 *285:19 la_data_out[49] 0.000117008
13 *297:13 *311:13 0.00545512
14 *303:13 *311:13 0.013479
15 *305:13 *311:13 0.0292266
16 *310:15 *311:23 4.06172e-06
*RES
1 *537:module_status_flags_out[49] *311:11 17.7564 
2 *311:11 *311:13 71.4112 
3 *311:13 *311:23 30.8995 
4 *311:23 la_data_out[49] 1187.5 
*END

*D_NET *312 0.568481
*CONN
*P la_data_out[50] O
*I *537:module_status_flags_out[50] O *D phase_099_top_integration
*CAP
1 la_data_out[50] 0.00342909
2 *537:module_status_flags_out[50] 9.69436e-05
3 *312:123 0.00342909
4 *312:121 0.00232139
5 *312:115 0.00398495
6 *312:109 0.0109764
7 *312:107 0.00988976
8 *312:101 0.00612169
9 *312:93 0.00834924
10 *312:91 0.00545262
11 *312:85 0.00477693
12 *312:77 0.0173684
13 *312:75 0.0162978
14 *312:69 0.00643861
15 *312:61 0.00788563
16 *312:59 0.00336914
17 *312:53 0.00539496
18 *312:51 0.00539842
19 *312:45 0.00500871
20 *312:43 0.00802962
21 *312:37 0.00631878
22 *312:35 0.00324124
23 *312:29 0.00452291
24 *312:27 0.00790703
25 *312:23 0.00457819
26 *312:13 0.0147003
27 *312:11 0.0143169
28 *312:9 0.0166435
29 *312:7 0.0167404
30 *312:9 *318:11 0.0434831
31 *312:9 *323:21 0.000531765
32 *312:9 *338:10 0.00495064
33 *312:9 *340:6 0.00374761
34 *312:9 *345:11 0.0326896
35 *312:9 *346:11 0.00106755
36 *312:9 *351:19 0.00966496
37 *312:9 *352:19 0.00325919
38 *312:9 *353:11 0.0053612
39 *312:9 *362:9 0.0040379
40 *312:13 la_data_out[81] 0.000246483
41 *312:13 *318:23 0.0968153
42 *312:13 *321:22 0.0973112
43 *312:13 *329:15 0
44 *312:13 *337:9 0.00037115
45 *312:23 *325:22 0
46 *312:23 *334:19 6.4e-06
47 *312:27 *321:26 0
48 *312:27 *341:29 2.64181e-05
49 *312:29 *336:15 0
50 *312:61 *342:9 0.00214125
51 *312:93 la_data_out[58] 0
52 *312:101 la_data_out[53] 0
53 *312:121 la_data_out[51] 0
54 *38:9 *312:23 0.00025169
55 *38:9 *312:27 0.00357407
56 *64:13 *312:9 3.12959e-05
57 *66:13 *312:9 3.15007e-05
58 *76:9 *312:27 0.0118939
59 *127:14 *312:9 0.00116531
60 *131:9 *312:13 0.00481467
61 *274:11 *312:9 0.00944355
62 *282:9 *312:23 0.000337988
63 *302:13 *312:121 0.000229845
64 *309:11 *312:9 0.00800719
*RES
1 *537:module_status_flags_out[50] *312:7 9.48107 
2 *312:7 *312:9 117.565 
3 *312:9 *312:11 8 
4 *312:11 *312:13 1243.21 
5 *312:13 *312:23 29.2854 
6 *312:23 *312:27 32.7856 
7 *312:27 *312:29 82.5464 
8 *312:29 *312:35 18.632 
9 *312:35 *312:37 54.375 
10 *312:37 *312:43 28.936 
11 *312:43 *312:45 95.9279 
12 *312:45 *312:51 18.632 
13 *312:51 *312:53 104.379 
14 *312:53 *312:59 18.632 
15 *312:59 *312:61 79.025 
16 *312:61 *312:69 48.5425 
17 *312:69 *312:75 19.2331 
18 *312:75 *312:77 343.836 
19 *312:77 *312:85 45.4366 
20 *312:85 *312:91 24.4709 
21 *312:91 *312:93 64.235 
22 *312:93 *312:101 49.8652 
23 *312:101 *312:107 18.0309 
24 *312:107 *312:109 207.909 
25 *312:109 *312:115 21.208 
26 *312:115 *312:121 46.6097 
27 *312:121 *312:123 8 
28 *312:123 la_data_out[50] 69.0925 
*END

*D_NET *313 0.120271
*CONN
*P la_data_out[51] O
*I *537:module_status_flags_out[51] O *D phase_099_top_integration
*CAP
1 la_data_out[51] 0.0519129
2 *537:module_status_flags_out[51] 0.00359964
3 *313:15 0.0555126
4 *273:13 *313:15 0
5 *284:13 *313:15 0.00812658
6 *287:11 *313:15 0
7 *304:19 *313:15 0.00111908
8 *312:121 la_data_out[51] 0
*RES
1 *537:module_status_flags_out[51] *313:15 44.2747 
2 *313:15 la_data_out[51] 1187.5 
*END

*D_NET *314 0.428084
*CONN
*P la_data_out[52] O
*I *537:module_status_flags_out[52] O *D phase_099_top_integration
*CAP
1 la_data_out[52] 0.051986
2 *537:module_status_flags_out[52] 0.000104162
3 *314:21 0.051986
4 *314:19 0.0164946
5 *314:17 0.0164946
6 *314:15 0.034226
7 *314:13 0.034226
8 *314:11 0.00403628
9 *314:9 0.00414044
10 la_data_out[52] *349:9 0
11 *314:9 *338:18 0.000101159
12 *314:11 *338:18 0.0258044
13 *314:11 *353:11 0
14 *314:15 *329:15 0.0985298
15 *314:19 *327:15 0.000954224
16 *314:19 *359:13 0.00482764
17 *314:19 *455:17 0
18 *63:17 *314:15 0
19 *67:17 *314:11 0.00554538
20 *284:13 *314:19 0.00382593
21 *285:13 *314:19 0
22 *297:13 *314:19 0
23 *304:11 *314:11 0.0261423
24 *304:19 *314:19 0.0486592
*RES
1 *537:module_status_flags_out[52] *314:9 17.0611 
2 *314:9 *314:11 288.861 
3 *314:11 *314:13 15 
4 *314:13 *314:15 1251.66 
5 *314:15 *314:17 15 
6 *314:17 *314:19 538.986 
7 *314:19 *314:21 15 
8 *314:21 la_data_out[52] 1188.38 
*END

*D_NET *315 0.402281
*CONN
*P la_data_out[53] O
*I *537:module_status_flags_out[53] O *D phase_099_top_integration
*CAP
1 la_data_out[53] 0.0525821
2 *537:module_status_flags_out[53] 0.000913334
3 *315:33 0.0534328
4 *315:23 0.0104317
5 *315:21 0.012489
6 *315:15 0.0248934
7 *315:13 0.0219854
8 *315:11 0.00107879
9 *315:9 0.00199213
10 *315:11 *320:13 0.00144227
11 *315:11 *329:11 0.000479448
12 *315:15 *316:15 0.0969283
13 *315:15 *319:9 5.03395e-05
14 *315:15 *331:15 0
15 *315:15 *338:28 0.000152755
16 *315:15 *341:15 0.0478199
17 *315:21 *316:19 0.00524475
18 *315:21 *334:19 0.00522695
19 *315:21 *338:36 6.77129e-05
20 *315:23 *316:19 0.0367296
21 *315:23 *320:19 0.00561982
22 *315:23 *320:33 0
23 *315:23 *334:19 0.00326447
24 *38:9 *315:33 0.00293233
25 *61:21 *315:11 0.00691531
26 *63:21 *315:11 0.000169126
27 *295:19 *315:11 0.00652103
28 *307:19 *315:23 0
29 *307:29 *315:23 0
30 *307:29 *315:33 0.00291799
31 *312:101 la_data_out[53] 0
*RES
1 *537:module_status_flags_out[53] *315:9 28.8061 
2 *315:9 *315:11 79.2321 
3 *315:11 *315:13 15 
4 *315:13 *315:15 1249.02 
5 *315:15 *315:21 26.7432 
6 *315:21 *315:23 67.7189 
7 *315:23 *315:33 30.4941 
8 *315:33 la_data_out[53] 1199.47 
*END

*D_NET *316 0.444383
*CONN
*P la_data_out[54] O
*I *537:module_status_flags_out[54] O *D phase_099_top_integration
*CAP
1 la_data_out[54] 0.0475246
2 *537:module_status_flags_out[54] 0.000874031
3 *316:29 0.0480749
4 *316:19 0.0185973
5 *316:17 0.018047
6 *316:15 0.0189671
7 *316:13 0.0189671
8 *316:11 0.00598674
9 *316:9 0.00686077
10 *316:11 *329:11 0.0197225
11 *316:15 *319:9 0.0767776
12 *316:15 *334:15 0
13 *316:19 *338:36 1.21923e-05
14 *31:13 *316:11 0.0017445
15 *38:9 *316:29 2.04785e-05
16 *76:9 *316:29 1.35549e-05
17 *131:13 *316:19 0
18 *133:9 la_data_out[54] 0.0115685
19 *295:11 *316:9 0
20 *295:11 *316:11 0.00212551
21 *307:29 *316:19 0
22 *309:15 *316:15 0.00959556
23 *315:15 *316:15 0.0969283
24 *315:21 *316:19 0.00524475
25 *315:23 *316:19 0.0367296
*RES
1 *537:module_status_flags_out[54] *316:9 28.9096 
2 *316:9 *316:11 210.726 
3 *316:11 *316:13 15 
4 *316:13 *316:15 1248.67 
5 *316:15 *316:17 8 
6 *316:17 *316:19 88.3699 
7 *316:19 *316:29 25.6781 
8 *316:29 la_data_out[54] 1197.36 
*END

*D_NET *317 0.51759
*CONN
*P la_data_out[55] O
*I *537:module_status_flags_out[55] O *D phase_099_top_integration
*CAP
1 la_data_out[55] 0.00314811
2 *537:module_status_flags_out[55] 0.00135541
3 *317:135 0.00387209
4 *317:129 0.00589849
5 *317:127 0.00517451
6 *317:125 0.00139914
7 *317:121 0.00300353
8 *317:119 0.00160438
9 *317:117 0.0022775
10 *317:115 0.00308872
11 *317:109 0.00251802
12 *317:107 0.00262124
13 *317:103 0.00147131
14 *317:97 0.00716296
15 *317:95 0.0066061
16 *317:93 0.00131503
17 *317:89 0.00248844
18 *317:87 0.00190483
19 *317:81 0.00306798
20 *317:79 0.00233655
21 *317:77 0.00456891
22 *317:75 0.00456891
23 *317:73 0.00141347
24 *317:69 0.00278353
25 *317:65 0.00341241
26 *317:63 0.00204236
27 *317:61 0.00175288
28 *317:59 0.00241267
29 *317:53 0.00541587
30 *317:51 0.00475609
31 *317:49 0.00177459
32 *317:41 0.047669
33 *317:39 0.0466867
34 *317:31 0.0248997
35 *317:29 0.0263702
36 *317:19 0.0151717
37 *317:17 0.0142642
38 *317:17 *363:17 0.0018813
39 *317:19 *318:11 0.00015909
40 *317:19 *322:27 0.000728909
41 *317:19 *326:11 0.0566779
42 *317:19 *351:15 0.00775275
43 *317:31 *320:15 0.0281315
44 *317:31 *331:15 0
45 *317:31 *363:23 0.000103868
46 *317:65 la_data_out[72] 0
47 *317:73 la_data_out[70] 0
48 *317:89 la_data_out[64] 0.00333154
49 *317:97 *318:71 0.00366603
50 *317:115 *318:79 0
51 *317:129 *356:9 0
52 *31:9 *317:31 0.00489406
53 *64:13 *317:19 0.0390107
54 *65:13 *317:29 0.000703646
55 *73:9 *317:125 0.00108165
56 *76:19 *317:41 0
57 *105:9 *317:117 0.00170256
58 *126:11 *317:17 0.00088096
59 *135:11 *317:19 0.00465952
60 *272:11 *317:17 0.00354095
61 *274:11 *317:19 0.0104382
62 *275:11 *317:31 0.0225235
63 *279:9 *317:17 0.000582502
64 *281:11 *317:17 0.000739427
65 *294:9 *317:107 0.00075989
66 *295:31 *317:31 0.00877632
67 *298:23 *317:31 0.00324966
68 *302:9 *317:31 0.0157695
69 *308:11 *317:19 0.00214353
70 *309:27 *317:39 0
71 *309:33 *317:39 9.18276e-05
72 *309:35 *317:41 0.0213315
*RES
1 *537:module_status_flags_out[55] *317:17 43.404 
2 *317:17 *317:19 124.949 
3 *317:19 *317:29 31.2035 
4 *317:29 *317:31 971.355 
5 *317:31 *317:39 18.2157 
6 *317:39 *317:41 147.933 
7 *317:41 *317:49 42.6069 
8 *317:49 *317:51 15 
9 *317:51 *317:53 100.195 
10 *317:53 *317:59 44.5829 
11 *317:59 *317:61 35.8771 
12 *317:61 *317:63 15 
13 *317:63 *317:65 46.6279 
14 *317:65 *317:69 43.7307 
15 *317:69 *317:73 47.19 
16 *317:73 *317:75 15 
17 *317:75 *317:77 100.195 
18 *317:77 *317:79 15 
19 *317:79 *317:81 54.0229 
20 *317:81 *317:87 44.4379 
21 *317:87 *317:89 42.4021 
22 *317:89 *317:93 43.7307 
23 *317:93 *317:95 15 
24 *317:95 *317:97 164.596 
25 *317:97 *317:103 41.1029 
26 *317:103 *317:107 43.6686 
27 *317:107 *317:109 35.8771 
28 *317:109 *317:115 48.4564 
29 *317:115 *317:117 46.3586 
30 *317:117 *317:119 15 
31 *317:119 *317:121 35.7114 
32 *317:121 *317:125 43.7307 
33 *317:125 *317:127 15 
34 *317:127 *317:129 117.761 
35 *317:129 *317:135 44.9143 
36 *317:135 la_data_out[55] 62.93 
*END

*D_NET *318 0.48774
*CONN
*P la_data_out[56] O
*I *537:module_status_flags_out[56] O *D phase_099_top_integration
*CAP
1 la_data_out[56] 0.00394552
2 *537:module_status_flags_out[56] 0.000267215
3 *318:93 0.00599158
4 *318:89 0.00313943
5 *318:85 0.00296827
6 *318:79 0.0125173
7 *318:77 0.0135191
8 *318:71 0.00487292
9 *318:69 0.00199616
10 *318:67 0.00424302
11 *318:55 0.01421
12 *318:53 0.013162
13 *318:45 0.00985516
14 *318:41 0.00765967
15 *318:37 0.0067315
16 *318:31 0.0214526
17 *318:29 0.0161317
18 *318:23 0.0222429
19 *318:21 0.0232287
20 *318:11 0.0106146
21 *318:9 0.00948492
22 la_data_out[56] *356:9 0.00208215
23 *318:11 *344:11 0.00288576
24 *318:11 *346:11 0.0165552
25 *318:11 *352:21 0.00635821
26 *318:21 *321:10 0.00060864
27 *318:21 *321:20 0.000147041
28 *318:21 *338:18 0.00024288
29 *318:21 *338:28 0.000113562
30 *318:21 *340:14 0.000157368
31 *318:23 *329:15 0
32 *318:23 *337:9 0.0580393
33 *318:31 *319:9 0.00550401
34 *318:31 *325:22 0
35 *318:31 *338:38 0
36 *318:55 *354:9 0.0118606
37 *318:85 *328:13 0
38 *318:85 *335:13 0
39 *318:89 la_data_out[58] 0.0014756
40 io_oeb[1] *318:77 0
41 *64:13 *318:11 0.0127437
42 *65:13 *318:21 5.83296e-06
43 *67:17 *318:21 0.00218108
44 *125:7 *318:9 0
45 *131:9 *318:23 0.00481467
46 *131:13 *318:29 0.000348649
47 *274:11 *318:11 0.00256259
48 *282:9 *318:31 0.00386085
49 *309:95 *318:41 0.00283474
50 *312:9 *318:11 0.0434831
51 *312:13 *318:23 0.0968153
52 *317:19 *318:11 0.00015909
53 *317:97 *318:71 0.00366603
54 *317:115 *318:79 0
*RES
1 *537:module_status_flags_out[56] *318:9 11.9979 
2 *318:9 *318:11 80.5989 
3 *318:11 *318:21 33.4243 
4 *318:21 *318:23 1229.83 
5 *318:23 *318:29 17.1723 
6 *318:29 *318:31 393.136 
7 *318:31 *318:37 34.088 
8 *318:37 *318:41 44.0636 
9 *318:41 *318:45 30.6389 
10 *318:45 *318:53 44.4565 
11 *318:53 *318:55 307.918 
12 *318:55 *318:67 47.6154 
13 *318:67 *318:69 8 
14 *318:69 *318:71 60.7136 
15 *318:71 *318:77 25.1579 
16 *318:77 *318:79 243.124 
17 *318:79 *318:85 21.8949 
18 *318:85 *318:89 44.0636 
19 *318:89 *318:93 14.496 
20 *318:93 la_data_out[56] 101.49 
*END

*D_NET *319 0.332375
*CONN
*P la_data_out[57] O
*I *537:module_status_flags_out[57] O *D phase_099_top_integration
*CAP
1 la_data_out[57] 0.0497344
2 *537:module_status_flags_out[57] 0.000686796
3 *319:15 0.0497344
4 *319:13 0.0241927
5 *319:11 0.0241927
6 *319:9 0.0162937
7 *319:7 0.0169805
8 *319:9 *338:38 0.00148787
9 *319:9 *341:15 0
10 *282:9 *319:9 0.00956671
11 *309:15 *319:9 0.0571727
12 *315:15 *319:9 5.03395e-05
13 *316:15 *319:9 0.0767776
14 *318:31 *319:9 0.00550401
*RES
1 *537:module_status_flags_out[57] *319:7 9.35893 
2 *319:7 *319:9 1055.17 
3 *319:9 *319:11 8 
4 *319:11 *319:13 78.5381 
5 *319:13 *319:15 8 
6 *319:15 la_data_out[57] 1138.2 
*END

*D_NET *320 0.412158
*CONN
*P la_data_out[58] O
*I *537:module_status_flags_out[58] O *D phase_099_top_integration
*CAP
1 la_data_out[58] 0.0490893
2 *537:module_status_flags_out[58] 0.000772265
3 *320:37 0.0491347
4 *320:35 0.00285051
5 *320:33 0.00376037
6 *320:19 0.01189
7 *320:17 0.0109348
8 *320:15 0.0172729
9 *320:13 0.0208001
10 *320:9 0.00429954
11 *320:13 *332:13 0.0163389
12 *320:13 *341:13 0.000121154
13 *320:15 *326:15 0.0188485
14 *320:15 *363:23 0.00151738
15 *320:19 *334:19 0.0185227
16 *320:19 *341:29 0.00594384
17 *320:35 *360:15 0.000224209
18 *31:9 *320:15 2.12347e-06
19 *31:13 *320:13 0.00382456
20 *38:9 *320:33 2.04785e-05
21 *61:9 *320:15 0.0054932
22 *61:19 *320:15 3.43399e-05
23 *76:9 *320:33 1.35549e-05
24 *275:11 *320:15 0.0429176
25 *292:9 *320:9 0.000219074
26 *292:15 *320:15 0
27 *295:11 *320:13 0.00829324
28 *295:19 *320:13 0.00142276
29 *295:31 *320:15 0.00855779
30 *298:15 *320:15 0.0621895
31 *307:19 *320:19 0.00891969
32 *307:19 *320:33 0.0012118
33 *309:27 *320:15 4.81862e-05
34 *312:93 la_data_out[58] 0
35 *315:11 *320:13 0.00144227
36 *315:23 *320:19 0.00561982
37 *315:23 *320:33 0
38 *317:31 *320:15 0.0281315
39 *318:89 la_data_out[58] 0.0014756
*RES
1 *537:module_status_flags_out[58] *320:9 21.63 
2 *320:9 *320:13 38.6245 
3 *320:13 *320:15 1250.96 
4 *320:15 *320:17 8 
5 *320:17 *320:19 71.54 
6 *320:19 *320:33 27.388 
7 *320:33 *320:35 62.9093 
8 *320:35 *320:37 1.09786 
9 *320:37 la_data_out[58] 1134.59 
*END

*D_NET *321 0.516648
*CONN
*P la_data_out[59] O
*I *537:module_status_flags_out[59] O *D phase_099_top_integration
*CAP
1 la_data_out[59] 0.035367
2 *537:module_status_flags_out[59] 0.00116316
3 *321:28 0.035367
4 *321:26 0.0119673
5 *321:24 0.0119673
6 *321:22 0.0142342
7 *321:20 0.0149095
8 *321:10 0.0117886
9 *321:8 0.0122765
10 la_data_out[59] *335:9 0.0822657
11 *321:8 *325:18 0.000659652
12 *321:8 *338:18 0.000586925
13 *321:10 *325:18 0.0163302
14 *321:20 *325:18 0.000675965
15 *321:20 *338:28 0.000251098
16 *321:22 la_data_out[81] 0.0981339
17 *321:22 *337:9 0.000265533
18 *321:26 *327:15 0.0102029
19 *321:26 *336:15 0.00268527
20 *321:26 *359:13 0.00123037
21 *321:26 *361:13 0.0170543
22 *65:13 *321:20 0.000125007
23 *67:17 *321:8 0.00303918
24 *67:17 *321:10 0.00918966
25 *76:9 *321:26 0
26 *131:9 *321:22 0.00587392
27 *284:13 *321:26 0.00343
28 *305:13 *321:26 0.0135285
29 *311:13 *321:26 0.00401208
30 *312:13 *321:22 0.0973112
31 *312:27 *321:26 0
32 *318:21 *321:10 0.00060864
33 *318:21 *321:20 0.000147041
*RES
1 *537:module_status_flags_out[59] *321:8 14.1189 
2 *321:8 *321:10 63.168 
3 *321:10 *321:20 10.1523 
4 *321:20 *321:22 1246.73 
5 *321:22 *321:24 8 
6 *321:24 *321:26 72.9568 
7 *321:26 *321:28 8 
8 *321:28 la_data_out[59] 1189.61 
*END

*D_NET *322 0.544904
*CONN
*P la_data_out[5] O
*P wbs_dat_o[5] O
*I *537:module_status_flags_out[5] O *D phase_099_top_integration
*CAP
1 la_data_out[5] 0.000771125
2 wbs_dat_o[5] 0.000624717
3 *537:module_status_flags_out[5] 0.000722072
4 *322:35 0.00874271
5 *322:33 0.00888912
6 *322:31 0.105449
7 *322:29 0.105449
8 *322:27 0.016021
9 *322:25 0.0162055
10 *322:19 0.00910104
11 *322:17 0.00897614
12 *322:11 0.00157014
13 *322:9 0.00223263
14 la_data_out[5] *333:37 0.000276734
15 la_data_out[5] *344:29 0.000265619
16 *322:27 *344:19 0.00223199
17 *322:35 *333:37 0.0523743
18 *322:35 *344:29 0.0506191
19 wbs_dat_o[11] *322:35 0.000372337
20 wbs_dat_o[12] *322:35 0.000812434
21 wbs_dat_o[16] *322:35 0.00183765
22 *537:rf_adc_i_in[3] *322:25 0.000305025
23 *30:21 *322:11 0.0113412
24 *41:21 *322:11 0.0113412
25 *62:19 *322:17 0.000136486
26 *113:7 *322:17 0.000138727
27 *134:27 *322:35 0.000308401
28 *135:11 *322:27 0.00596944
29 *135:37 *322:35 0.000620932
30 *136:43 *322:35 0.000676704
31 *227:7 *322:31 0
32 *272:11 *322:19 0.0085017
33 *272:41 *322:35 0.000194278
34 *274:11 *322:27 0.0533105
35 *275:41 *322:35 0.000609196
36 *278:23 *322:35 0.000182935
37 *279:53 *322:35 0.00063772
38 *281:11 *322:19 0.0267748
39 *287:29 *322:35 0.00253557
40 *289:37 *322:35 0.00130843
41 *308:11 *322:27 0.0257368
42 *317:19 *322:27 0.000728909
*RES
1 *537:module_status_flags_out[5] *322:9 26.6932 
2 *322:9 *322:11 124.016 
3 *322:11 *322:17 31.9057 
4 *322:17 *322:19 293.149 
5 *322:19 *322:25 27.1946 
6 *322:25 *322:27 121.815 
7 *322:27 *322:29 8 
8 *322:29 *322:31 2432.22 
9 *322:31 *322:33 15 
10 *322:33 *322:35 579.006 
11 *322:35 wbs_dat_o[5] 28.2779 
12 *322:33 la_data_out[5] 31.2814 
*END

*D_NET *323 0.669382
*CONN
*P la_data_out[60] O
*I *537:module_status_flags_out[60] O *D phase_099_top_integration
*CAP
1 la_data_out[60] 0.00181185
2 *537:module_status_flags_out[60] 0.00097664
3 *323:29 0.00959935
4 *323:27 0.00778749
5 *323:25 0.0304129
6 *323:23 0.0304129
7 *323:21 0.00314639
8 *323:13 0.0211532
9 *323:11 0.0189835
10 *323:13 *329:11 0.00175346
11 *323:13 *331:11 0.0257833
12 *323:13 *334:13 0.00181949
13 *323:21 *340:6 0.00542552
14 *323:21 *345:11 0.00627131
15 *323:21 *357:9 0.000232058
16 *323:25 la_data_out[81] 0.0476533
17 *323:25 *325:22 0.189162
18 *323:25 *334:15 0
19 *323:25 *338:30 0.00552772
20 *323:29 *358:13 0.0363033
21 *31:13 *323:13 0.0200649
22 *66:13 *323:21 0.000938285
23 *75:9 *323:29 0.0363033
24 *114:13 *323:13 0
25 *119:11 *323:13 0
26 *120:11 *323:13 0
27 *121:11 *323:13 0
28 *129:13 *323:13 0.0341458
29 *131:9 *323:25 0.00861566
30 *132:13 *323:13 0.0260297
31 *290:9 *323:11 0
32 *304:15 *323:25 0.0985367
33 *312:9 *323:21 0.000531765
*RES
1 *537:module_status_flags_out[60] *323:11 25.0686 
2 *323:11 *323:13 130.745 
3 *323:13 *323:21 44.5406 
4 *323:21 *323:23 8 
5 *323:23 *323:25 2410.21 
6 *323:25 *323:27 8 
7 *323:27 *323:29 69.3504 
8 *323:29 la_data_out[60] 39.7654 
*END

*D_NET *324 0.163618
*CONN
*P la_data_out[61] O
*I *537:module_status_flags_out[61] O *D phase_099_top_integration
*CAP
1 la_data_out[61] 0.00144658
2 *537:module_status_flags_out[61] 8.48806e-05
3 *324:13 0.0153838
4 *324:11 0.0139373
5 *324:9 0.0510461
6 *324:7 0.051131
7 *324:13 *349:13 0.0166189
8 *324:13 *350:13 0.0125673
9 la_data_out[39] *324:13 9.6847e-05
10 *194:9 *324:13 0.00130553
11 *205:9 *324:13 0
12 *205:15 *324:13 0
13 *227:9 *324:13 0
14 *308:123 *324:9 0
15 *309:147 *324:13 0
*RES
1 *537:module_status_flags_out[61] *324:7 1.86429 
2 *324:7 *324:9 1174.19 
3 *324:9 *324:11 8 
4 *324:11 *324:13 73.9872 
5 *324:13 la_data_out[61] 32.7225 
*END

*D_NET *325 0.569317
*CONN
*P la_data_out[62] O
*I *537:module_status_flags_out[62] O *D phase_099_top_integration
*CAP
1 la_data_out[62] 0.00188097
2 *537:module_status_flags_out[62] 0.00143435
3 *325:26 0.00942768
4 *325:24 0.00754671
5 *325:22 0.0659989
6 *325:20 0.0659989
7 *325:18 0.0216365
8 *325:16 0.0230709
9 *325:22 *334:15 0
10 *325:22 *338:30 0.00552772
11 *325:26 *326:19 0.0300136
12 *325:26 *358:13 0.0328047
13 *65:13 *325:18 0.054396
14 *67:17 *325:18 0.000593126
15 *127:16 *325:18 0.028384
16 *130:8 *325:18 0.0010027
17 *130:10 *325:16 0.00291737
18 *131:9 *325:22 0.00861566
19 *282:9 *325:22 0
20 *294:9 la_data_out[62] 0
21 *299:17 *325:16 0.00123917
22 *312:23 *325:22 0
23 *318:31 *325:22 0
24 *321:8 *325:18 0.000659652
25 *321:10 *325:18 0.0163302
26 *321:20 *325:18 0.000675965
27 *323:25 *325:22 0.189162
*RES
1 *537:module_status_flags_out[62] *325:16 31.3435 
2 *325:16 *325:18 141.178 
3 *325:18 *325:20 8 
4 *325:20 *325:22 2403.17 
5 *325:22 *325:24 8 
6 *325:24 *325:26 62.6528 
7 *325:26 la_data_out[62] 41.1739 
*END

*D_NET *326 0.555666
*CONN
*P la_data_out[63] O
*I *537:module_status_flags_out[63] O *D phase_099_top_integration
*CAP
1 la_data_out[63] 0.00192713
2 *537:module_status_flags_out[63] 0.000421867
3 *326:19 0.0134719
4 *326:17 0.0115447
5 *326:15 0.0469154
6 *326:13 0.0469154
7 *326:11 0.017246
8 *326:9 0.0176678
9 *326:9 *351:15 0
10 *326:11 *330:11 0
11 *326:15 *331:15 0
12 *326:15 *345:15 0.18962
13 *537:rf_adc_i_in[6] *326:9 0
14 *64:13 *326:11 0.00123468
15 *135:11 *326:11 0.00595733
16 *136:11 *326:11 0.0120573
17 *275:11 *326:15 0.000913827
18 *292:15 *326:15 0.000132085
19 *293:9 *326:15 0
20 *295:29 *326:11 5.43555e-05
21 *295:31 *326:15 0.022061
22 *298:15 *326:15 0.0619352
23 *302:9 *326:15 0
24 *309:27 *326:15 5.03962e-05
25 *317:19 *326:11 0.0566779
26 *320:15 *326:15 0.0188485
27 *325:26 *326:19 0.0300136
*RES
1 *537:module_status_flags_out[63] *326:9 14.815 
2 *326:9 *326:11 109.278 
3 *326:11 *326:13 8 
4 *326:13 *326:15 2413.03 
5 *326:15 *326:17 8 
6 *326:17 *326:19 57.2432 
7 *326:19 la_data_out[63] 41.8782 
*END

*D_NET *327 0.130226
*CONN
*P la_data_out[64] O
*I *537:module_status_flags_out[64] O *D phase_099_top_integration
*CAP
1 la_data_out[64] 0.0513812
2 *537:module_status_flags_out[64] 0.00354154
3 *327:15 0.0549227
4 *327:15 la_data_out[70] 0
5 *327:15 *359:13 0.00514729
6 *304:19 *327:15 0.000744277
7 *314:19 *327:15 0.000954224
8 *317:89 la_data_out[64] 0.00333154
9 *321:26 *327:15 0.0102029
*RES
1 *537:module_status_flags_out[64] *327:15 47.3312 
2 *327:15 la_data_out[64] 1188.91 
*END

*D_NET *328 0.13968
*CONN
*P la_data_out[65] O
*I *537:module_status_flags_out[65] O *D phase_099_top_integration
*CAP
1 la_data_out[65] 0.00613153
2 *537:module_status_flags_out[65] 9.62404e-05
3 *328:15 0.00613153
4 *328:13 0.0171964
5 *328:11 0.0171964
6 *328:9 0.046416
7 *328:7 0.0465122
8 *318:85 *328:13 0
*RES
1 *537:module_status_flags_out[65] *328:7 1.86429 
2 *328:7 *328:9 1068.55 
3 *328:9 *328:11 8 
4 *328:11 *328:13 57.7584 
5 *328:13 *328:15 8 
6 *328:15 la_data_out[65] 130.365 
*END

*D_NET *329 0.443092
*CONN
*P la_data_out[66] O
*I *537:module_status_flags_out[66] O *D phase_099_top_integration
*CAP
1 la_data_out[66] 0.00104215
2 *537:module_status_flags_out[66] 0.000754359
3 *329:19 0.00566458
4 *329:17 0.00462244
5 *329:15 0.0858187
6 *329:13 0.0858187
7 *329:11 0.0262036
8 *329:9 0.0269579
9 *329:11 *363:19 0
10 *329:15 *337:9 0
11 *329:15 *355:9 0
12 *329:15 *364:9 0
13 *329:19 *330:19 0.0226374
14 *329:19 *331:23 3.78823e-05
15 *329:19 *338:42 0.000434572
16 *329:19 *345:21 0.000406974
17 *329:19 *350:21 0
18 *31:13 *329:11 0.00151103
19 *61:21 *329:11 0.0177457
20 *63:17 *329:15 0
21 *63:21 *329:11 0.000119582
22 *64:23 *329:11 0.000783693
23 *132:13 *329:11 0.0041536
24 *140:15 *329:15 0.000104065
25 *227:17 *329:19 0.00552202
26 *286:9 *329:9 0
27 *291:11 *329:11 0.00209769
28 *295:11 *329:11 0.00245392
29 *295:19 *329:11 0.00741398
30 *295:53 *329:19 0
31 *298:35 *329:19 0.00472571
32 *298:39 *329:19 0.0155766
33 *312:13 *329:15 0
34 *314:15 *329:15 0.0985298
35 *315:11 *329:11 0.000479448
36 *316:11 *329:11 0.0197225
37 *318:23 *329:15 0
38 *323:13 *329:11 0.00175346
*RES
1 *537:module_status_flags_out[66] *329:9 27.6046 
2 *329:9 *329:11 836.754 
3 *329:11 *329:13 15 
4 *329:13 *329:15 2437.68 
5 *329:15 *329:17 15 
6 *329:17 *329:19 281.238 
7 *329:19 la_data_out[66] 31.4471 
*END

*D_NET *330 0.501754
*CONN
*P la_data_out[67] O
*I *537:module_status_flags_out[67] O *D phase_099_top_integration
*CAP
1 la_data_out[67] 0.00107282
2 *537:module_status_flags_out[67] 0.000682798
3 *330:19 0.00618744
4 *330:17 0.00511462
5 *330:15 0.0669303
6 *330:13 0.0669303
7 *330:11 0.0120296
8 *330:9 0.0127124
9 *330:11 *332:13 0.00821894
10 *330:11 *341:13 0.00497059
11 *330:11 *357:11 0.0012874
12 *330:11 *363:19 0.00121655
13 *330:15 *332:15 0.191447
14 *330:15 *345:15 1.06173e-05
15 *330:19 *338:42 0.0106122
16 *330:19 *350:21 0
17 *30:21 *330:11 0.0048654
18 *31:13 *330:11 0.00134718
19 *41:21 *330:11 0.00428673
20 *52:21 *330:11 0.00707912
21 *61:21 *330:11 0.00201048
22 *63:21 *330:11 0.00107618
23 *76:15 *330:15 0.00735782
24 *76:19 *330:15 0.0032305
25 *76:21 *330:15 0.0278225
26 *227:17 *330:19 0.00425083
27 *281:11 *330:11 0.000636908
28 *292:19 *330:19 0
29 *295:29 *330:11 2.75955e-05
30 *295:29 *330:15 0.000104209
31 *295:31 *330:15 0.0199049
32 *298:11 *330:11 0.00123317
33 *298:33 *330:15 0.000172695
34 *307:11 *330:11 0.00428673
35 *326:11 *330:11 0
36 *329:19 *330:19 0.0226374
*RES
1 *537:module_status_flags_out[67] *330:9 19.0407 
2 *330:9 *330:11 51.2325 
3 *330:11 *330:13 8 
4 *330:13 *330:15 2434.33 
5 *330:15 *330:17 15 
6 *330:17 *330:19 242.171 
7 *330:19 la_data_out[67] 31.7993 
*END

*D_NET *331 0.431218
*CONN
*P la_data_out[68] O
*I *537:module_status_flags_out[68] O *D phase_099_top_integration
*CAP
1 la_data_out[68] 0.00092721
2 *537:module_status_flags_out[68] 0.001012
3 *331:23 0.00525609
4 *331:21 0.00438886
5 *331:15 0.0711774
6 *331:13 0.0711174
7 *331:11 0.0113404
8 *331:9 0.0123524
9 *331:9 *345:9 0
10 *331:9 *352:19 0.000113362
11 *331:11 *334:13 0.00333192
12 *331:15 *334:15 0
13 *331:15 *338:38 0
14 *331:15 *340:18 0.187947
15 *331:15 *341:15 7.22981e-06
16 *331:23 *345:21 4.39334e-05
17 *31:9 *331:15 0
18 *114:13 *331:11 0.00437404
19 *249:17 *331:23 0.00389645
20 *295:41 *331:15 0
21 *295:43 *331:23 0.0211214
22 *295:53 *331:23 0.000368431
23 *298:35 *331:23 0.00313252
24 *298:39 *331:23 0.00296249
25 *302:9 *331:15 0
26 *307:15 *331:15 0.000526529
27 *315:15 *331:15 0
28 *317:31 *331:15 0
29 *323:13 *331:11 0.0257833
30 *326:15 *331:15 0
31 *329:19 *331:23 3.78823e-05
*RES
1 *537:module_status_flags_out[68] *331:9 25.1514 
2 *331:9 *331:11 61.9659 
3 *331:11 *331:13 8 
4 *331:13 *331:15 2441.9 
5 *331:15 *331:21 15.9425 
6 *331:21 *331:23 229.784 
7 *331:23 la_data_out[68] 29.6864 
*END

*D_NET *332 0.55853
*CONN
*P la_data_out[69] O
*I *537:module_status_flags_out[69] O *D phase_099_top_integration
*CAP
1 la_data_out[69] 0.00112557
2 *537:module_status_flags_out[69] 0.000713802
3 *332:19 0.00869236
4 *332:15 0.0356041
5 *332:13 0.0325735
6 *332:9 0.00524995
7 *332:13 *341:13 0.0050166
8 *332:13 *363:19 0.00257659
9 *332:15 *345:15 6.7745e-05
10 *332:19 *342:13 0
11 *332:19 *350:21 0.00146879
12 *332:19 *356:13 0
13 *31:13 *332:13 0.000154751
14 *61:21 *332:13 0.00116251
15 *63:21 *332:13 0.00307659
16 *76:15 *332:15 0.00320805
17 *76:19 *332:15 0.00177835
18 *76:21 *332:15 0.0121308
19 *205:17 *332:19 0.0194591
20 *292:11 *332:13 0.00342541
21 *292:15 *332:15 0.191402
22 *292:19 *332:19 0.00168506
23 *292:25 la_data_out[69] 0
24 *295:11 *332:9 0
25 *295:11 *332:13 0.0019148
26 *295:29 *332:15 3.32226e-05
27 *295:31 *332:15 0.00995246
28 *298:33 *332:19 5.30238e-05
29 *320:13 *332:13 0.0163389
30 *330:11 *332:13 0.00821894
31 *330:15 *332:15 0.191447
*RES
1 *537:module_status_flags_out[69] *332:9 19.4964 
2 *332:9 *332:13 45.6656 
3 *332:13 *332:15 2434.86 
4 *332:15 *332:19 45.1504 
5 *332:19 la_data_out[69] 25.6796 
*END

*D_NET *333 0.425358
*CONN
*P wbs_dat_o[6] O
*P la_data_out[6] O
*I *537:module_status_flags_out[6] O *D phase_099_top_integration
*CAP
1 wbs_dat_o[6] 0.000655387
2 la_data_out[6] 0.000761284
3 *537:module_status_flags_out[6] 0.000636996
4 *333:37 0.0113047
5 *333:35 0.0106493
6 *333:27 0.10557
7 *333:25 0.112178
8 *333:21 0.00780635
9 *333:11 0.00857011
10 *333:9 0.00876967
11 *333:37 *344:29 0.000963782
12 *333:37 *355:39 0.00242129
13 la_data_out[5] *333:37 0.000276734
14 *126:11 *333:11 0.0084153
15 *126:15 *333:21 0.00132512
16 *127:16 *333:25 0
17 *130:10 *333:25 0
18 *134:27 *333:37 0.000362228
19 *275:41 *333:37 0.00041717
20 *276:33 *333:37 0.000288182
21 *277:11 *333:11 0.0246552
22 *277:41 *333:37 0.00987068
23 *279:53 *333:37 0.0018111
24 *281:11 *333:11 0.0246958
25 *285:31 *333:37 0.025203
26 *286:15 *333:21 0.000886
27 *287:29 *333:37 0.0044851
28 *291:11 *333:11 5.85822e-06
29 *322:35 *333:37 0.0523743
*RES
1 *537:module_status_flags_out[6] *333:9 25.9889 
2 *333:9 *333:11 476.574 
3 *333:11 *333:21 43.1032 
4 *333:21 *333:25 30.9824 
5 *333:25 *333:27 2417.78 
6 *333:27 la_data_out[6] 13.63 
7 *333:27 *333:35 15 
8 *333:35 *333:37 581.864 
9 *333:37 wbs_dat_o[6] 28.63 
*END

*D_NET *334 0.328222
*CONN
*P la_data_out[70] O
*I *537:module_status_flags_out[70] O *D phase_099_top_integration
*CAP
1 la_data_out[70] 0.0525238
2 *537:module_status_flags_out[70] 0.00358095
3 *334:29 0.0529317
4 *334:19 0.00516412
5 *334:15 0.0427459
6 *334:13 0.0415707
7 *334:13 *341:13 5.06538e-05
8 *334:15 la_data_out[81] 0
9 *334:15 *338:30 0.0193821
10 *334:19 *338:36 0.000253558
11 *334:19 *341:29 0.000210267
12 *31:13 *334:13 0.00835407
13 *38:9 *334:19 0
14 *38:9 *334:29 2.047e-05
15 *76:9 *334:29 1.35507e-05
16 *282:9 *334:15 0.0422241
17 *298:9 *334:13 0
18 *309:15 *334:15 0.0270243
19 *312:23 *334:19 6.4e-06
20 *315:21 *334:19 0.00522695
21 *315:23 *334:19 0.00326447
22 *316:15 *334:15 0
23 *317:73 la_data_out[70] 0
24 *320:19 *334:19 0.0185227
25 *323:13 *334:13 0.00181949
26 *323:25 *334:15 0
27 *325:22 *334:15 0
28 *327:15 la_data_out[70] 0
29 *331:11 *334:13 0.00333192
30 *331:15 *334:15 0
*RES
1 *537:module_status_flags_out[70] *334:13 48.4958 
2 *334:13 *334:15 1252.36 
3 *334:15 *334:19 43.8195 
4 *334:19 *334:29 25.1704 
5 *334:29 la_data_out[70] 1197.36 
*END

*D_NET *335 0.178593
*CONN
*P la_data_out[71] O
*I *537:module_status_flags_out[71] O *D phase_099_top_integration
*CAP
1 la_data_out[71] 0.00682533
2 *537:module_status_flags_out[71] 9.62404e-05
3 *335:15 0.00682533
4 *335:13 0.0121502
5 *335:9 0.0412423
6 *335:7 0.0291884
7 la_data_out[59] *335:9 0.0822657
8 *318:85 *335:13 0
*RES
1 *537:module_status_flags_out[71] *335:7 1.86429 
2 *335:7 *335:9 1054.46 
3 *335:9 *335:13 47.8981 
4 *335:13 *335:15 8 
5 *335:15 la_data_out[71] 144.451 
*END

*D_NET *336 0.111505
*CONN
*P la_data_out[72] O
*I *537:module_status_flags_out[72] O *D phase_099_top_integration
*CAP
1 la_data_out[72] 0.0517262
2 *537:module_status_flags_out[72] 0.00153536
3 *336:15 0.0532616
4 *76:9 *336:15 0
5 *309:129 la_data_out[72] 0.00229654
6 *312:29 *336:15 0
7 *317:65 la_data_out[72] 0
8 *321:26 *336:15 0.00268527
*RES
1 *537:module_status_flags_out[72] *336:15 31.5828 
2 *336:15 la_data_out[72] 1190.32 
*END

*D_NET *337 0.255636
*CONN
*P la_data_out[73] O
*I *537:module_status_flags_out[73] O *D phase_099_top_integration
*CAP
1 la_data_out[73] 0.050664
2 *537:module_status_flags_out[73] 0.00104862
3 *337:15 0.05902
4 *337:9 0.0208194
5 *337:7 0.013512
6 *337:9 la_data_out[81] 0
7 *337:9 *355:9 0.000141236
8 *337:9 *364:9 0.0448312
9 *111:5 *337:7 0.000180393
10 *112:5 *337:7 0.000180393
11 *131:9 *337:9 0.00481467
12 *275:15 *337:15 0
13 *309:45 *337:15 0
14 *309:111 la_data_out[73] 0.0017478
15 *312:13 *337:9 0.00037115
16 *318:23 *337:9 0.0580393
17 *321:22 *337:9 0.000265533
18 *329:15 *337:9 0
*RES
1 *537:module_status_flags_out[73] *337:7 10.6469 
2 *337:7 *337:9 773.451 
3 *337:9 *337:15 42.8464 
4 *337:15 la_data_out[73] 1173.41 
*END

*D_NET *338 0.467782
*CONN
*P la_data_out[74] O
*I *537:module_status_flags_out[74] O *D phase_099_top_integration
*CAP
1 la_data_out[74] 0.00110086
2 *537:module_status_flags_out[74] 0.00655627
3 *338:42 0.00330556
4 *338:40 0.0022047
5 *338:38 0.0409018
6 *338:36 0.0411075
7 *338:30 0.0739338
8 *338:28 0.0739667
9 *338:18 0.0198471
10 *338:16 0.0197223
11 *338:10 0.00667005
12 *338:10 *340:6 0.00879634
13 *338:10 *353:11 0.00101105
14 *338:18 *353:11 0
15 *338:28 *341:15 0.000154922
16 *338:38 *340:18 0.0272984
17 *338:38 *341:15 0.000169979
18 *338:42 *340:22 0.00783619
19 *338:42 *350:21 0
20 *537:rf_adc_i_in[9] *338:16 0.000164186
21 *67:17 *338:18 0.0197486
22 *130:8 *338:18 0.001307
23 *130:10 *338:10 0.000607291
24 *131:9 *338:30 0.0151438
25 *140:15 *338:30 0
26 *205:17 *338:42 0.00231359
27 *274:11 *338:10 0.000696596
28 *282:9 *338:30 0.00861566
29 *292:19 *338:42 0
30 *299:15 *338:10 0.00272798
31 *299:17 *338:10 0.000759016
32 *304:15 *338:30 0.00552772
33 *307:15 *338:38 7.74897e-05
34 *312:9 *338:10 0.00495064
35 *314:9 *338:18 0.000101159
36 *314:11 *338:18 0.0258044
37 *315:15 *338:28 0.000152755
38 *315:21 *338:36 6.77129e-05
39 *316:19 *338:36 1.21923e-05
40 *318:21 *338:18 0.00024288
41 *318:21 *338:28 0.000113562
42 *318:31 *338:38 0
43 *319:9 *338:38 0.00148787
44 *321:8 *338:18 0.000586925
45 *321:20 *338:28 0.000251098
46 *323:25 *338:30 0.00552772
47 *325:22 *338:30 0.00552772
48 *329:19 *338:42 0.000434572
49 *330:19 *338:42 0.0106122
50 *331:15 *338:38 0
51 *334:15 *338:30 0.0193821
52 *334:19 *338:36 0.000253558
*RES
1 *537:module_status_flags_out[74] *338:10 42.0797 
2 *338:10 *338:16 25.4339 
3 *338:16 *338:18 538.509 
4 *338:18 *338:28 33.6101 
5 *338:28 *338:30 222.443 
6 *338:30 *338:36 16.5283 
7 *338:36 *338:38 1186.69 
8 *338:38 *338:40 15 
9 *338:40 *338:42 122.111 
10 *338:42 la_data_out[74] 32.1514 
*END

*D_NET *339 0.136919
*CONN
*P la_data_out[75] O
*I *537:module_status_flags_out[75] O *D phase_099_top_integration
*CAP
1 la_data_out[75] 0.00164004
2 *537:module_status_flags_out[75] 9.63192e-05
3 *339:15 0.00397335
4 *339:9 0.0533242
5 *339:7 0.0510872
6 *339:9 *350:19 2.24054e-06
7 *339:15 *343:13 0.0133998
8 *194:9 *339:15 0.0133956
9 *285:11 *339:7 0
10 *285:11 *339:9 0
*RES
1 *537:module_status_flags_out[75] *339:7 1.86429 
2 *339:7 *339:9 1172.08 
3 *339:9 *339:15 40.7856 
4 *339:15 la_data_out[75] 26.8354 
*END

*D_NET *340 0.532217
*CONN
*P la_data_out[76] O
*I *537:module_status_flags_out[76] O *D phase_099_top_integration
*CAP
1 la_data_out[76] 0.00113138
2 *537:module_status_flags_out[76] 0
3 *340:22 0.00361849
4 *340:20 0.00248711
5 *340:18 0.0410395
6 *340:16 0.0410395
7 *340:14 0.00116332
8 *340:6 0.0171978
9 *340:4 0.0160344
10 *340:6 *345:11 0.0125949
11 *340:6 *351:19 0.000557646
12 *340:6 *352:19 0.0015614
13 *340:22 *350:21 0
14 *537:rf_adc_i_in[7] *340:6 0.000495234
15 *65:13 *340:14 0.000300439
16 *66:13 *340:6 0.0512862
17 *127:14 *340:6 0.00235074
18 *130:10 *340:6 0.000708222
19 *205:17 *340:22 0.00135332
20 *292:19 *340:22 0
21 *307:15 *340:18 0.096089
22 *312:9 *340:6 0.00374761
23 *318:21 *340:14 0.000157368
24 *323:21 *340:6 0.00542552
25 *331:15 *340:18 0.187947
26 *338:10 *340:6 0.00879634
27 *338:38 *340:18 0.0272984
28 *338:42 *340:22 0.00783619
*RES
1 *537:module_status_flags_out[76] *340:4 8 
2 *340:4 *340:6 110.867 
3 *340:6 *340:14 43.8696 
4 *340:14 *340:16 15 
5 *340:16 *340:18 2417.96 
6 *340:18 *340:20 15 
7 *340:20 *340:22 83.9964 
8 *340:22 la_data_out[76] 32.5036 
*END

*D_NET *341 0.324226
*CONN
*P la_data_out[77] O
*I *537:module_status_flags_out[77] O *D phase_099_top_integration
*CAP
1 la_data_out[77] 0.0525312
2 *537:module_status_flags_out[77] 0.0023402
3 *341:29 0.0548127
4 *341:15 0.0242724
5 *341:13 0.0243311
6 *341:13 *357:9 0
7 *341:13 *363:19 0.00105167
8 *31:13 *341:13 2.944e-05
9 *38:9 *341:29 2.89336e-05
10 *61:19 *341:13 5.87407e-05
11 *63:21 *341:13 0.000918088
12 *64:13 *341:13 0
13 *295:29 *341:13 7.60892e-05
14 *307:15 *341:15 0.0970892
15 *307:19 *341:29 0.00219419
16 *312:27 *341:29 2.64181e-05
17 *315:15 *341:15 0.0478199
18 *319:9 *341:15 0
19 *320:13 *341:13 0.000121154
20 *320:19 *341:29 0.00594384
21 *330:11 *341:13 0.00497059
22 *331:15 *341:15 7.22981e-06
23 *332:13 *341:13 0.0050166
24 *334:13 *341:13 5.06538e-05
25 *334:19 *341:29 0.000210267
26 *338:28 *341:15 0.000154922
27 *338:38 *341:15 0.000169979
*RES
1 *537:module_status_flags_out[77] *341:13 37.972 
2 *341:13 *341:15 1250.25 
3 *341:15 *341:29 44.9509 
4 *341:29 la_data_out[77] 1197.36 
*END

*D_NET *342 0.139325
*CONN
*P la_data_out[78] O
*I *537:module_status_flags_out[78] O *D phase_099_top_integration
*CAP
1 la_data_out[78] 0.00138871
2 *537:module_status_flags_out[78] 9.62404e-05
3 *342:13 0.00844952
4 *342:9 0.0573974
5 *342:7 0.0504328
6 *342:7 *359:11 0
7 *342:9 *359:11 0
8 *342:13 *356:13 0.0193725
9 *205:17 *342:13 0
10 *285:11 *342:7 0
11 *285:11 *342:9 0
12 *309:147 *342:13 4.69696e-05
13 *312:61 *342:9 0.00214125
14 *332:19 *342:13 0
*RES
1 *537:module_status_flags_out[78] *342:7 1.86429 
2 *342:7 *342:9 1176.3 
3 *342:9 *342:13 43.8624 
4 *342:13 la_data_out[78] 30.6096 
*END

*D_NET *343 0.164947
*CONN
*P la_data_out[79] O
*I *537:module_status_flags_out[79] O *D phase_099_top_integration
*CAP
1 la_data_out[79] 0.00158841
2 *537:module_status_flags_out[79] 9.62404e-05
3 *343:13 0.00645059
4 *343:11 0.00486218
5 *343:9 0.0510597
6 *343:7 0.051156
7 *343:13 *348:13 0.0234579
8 *343:13 *349:13 0.000983661
9 *343:13 *350:13 0.00542572
10 *194:9 *343:13 0.00389878
11 *309:139 *343:13 0.00256787
12 *339:15 *343:13 0.0133998
*RES
1 *537:module_status_flags_out[79] *343:7 1.86429 
2 *343:7 *343:9 1172.78 
3 *343:9 *343:11 8 
4 *343:11 *343:13 48.2272 
5 *343:13 la_data_out[79] 34.1311 
*END

*D_NET *344 0.488339
*CONN
*P la_data_out[7] O
*P wbs_dat_o[7] O
*I *537:module_status_flags_out[7] O *D phase_099_top_integration
*CAP
1 la_data_out[7] 0.000720037
2 wbs_dat_o[7] 0.00061749
3 *537:module_status_flags_out[7] 0.000345138
4 *344:29 0.012385
5 *344:27 0.0125576
6 *344:23 0.105438
7 *344:21 0.105368
8 *344:19 0.0220529
9 *344:17 0.0221813
10 *344:11 0.0141591
11 *344:9 0.0143759
12 *344:11 *351:19 0.00302576
13 *344:11 *352:21 0.00718996
14 *344:11 *353:11 0.000192174
15 *344:11 *362:9 0.00198593
16 *344:19 *353:11 0.00771212
17 la_data_out[5] *344:29 0.000265619
18 wbs_dat_o[11] *344:29 0.000641958
19 wbs_dat_o[12] *344:29 0.00184279
20 wbs_dat_o[16] *344:29 0.00232636
21 *537:rf_adc_i_in[2] *344:17 0
22 *62:13 *344:11 0.00419129
23 *103:5 *344:23 0
24 *130:10 *344:19 0
25 *134:27 *344:29 0.000753754
26 *136:43 *344:29 0.00050139
27 *272:27 *344:29 0
28 *272:41 *344:29 0.00043424
29 *274:11 *344:11 0.00451878
30 *274:11 *344:19 0.0187446
31 *275:29 *344:29 0
32 *275:41 *344:29 0.000511824
33 *277:33 *344:27 0.000311475
34 *277:33 *344:29 0.0307549
35 *278:23 *344:29 0.000206796
36 *279:53 *344:29 0.000549544
37 *281:9 *344:9 0
38 *285:31 *344:27 0.000112756
39 *285:31 *344:29 0.000603799
40 *287:29 *344:29 0.00255039
41 *289:37 *344:29 0.00150233
42 *296:9 *344:11 0.000331274
43 *296:9 *344:19 0.00581003
44 *299:17 *344:19 0.0142575
45 *309:11 *344:11 0.00960839
46 *318:11 *344:11 0.00288576
47 *322:27 *344:19 0.00223199
48 *322:35 *344:29 0.0506191
49 *333:37 *344:29 0.000963782
*RES
1 *537:module_status_flags_out[7] *344:9 20.0025 
2 *344:9 *344:11 457.516 
3 *344:11 *344:17 25.0818 
4 *344:17 *344:19 112.799 
5 *344:19 *344:21 8 
6 *344:21 *344:23 2429.75 
7 *344:23 *344:27 18.48 
8 *344:27 *344:29 581.388 
9 *344:29 wbs_dat_o[7] 27.9257 
10 *344:27 la_data_out[7] 27.9257 
*END

*D_NET *345 0.538652
*CONN
*P la_data_out[80] O
*I *537:module_status_flags_out[80] O *D phase_099_top_integration
*CAP
1 la_data_out[80] 0.00101842
2 *537:module_status_flags_out[80] 0.000153665
3 *345:21 0.00110407
4 *345:15 0.0281535
5 *345:13 0.0280679
6 *345:11 0.0084905
7 *345:9 0.00864417
8 *345:11 *353:11 0.00644004
9 *345:11 *362:9 0.00549859
10 *76:15 *345:15 0.00250333
11 *76:19 *345:15 0.0023731
12 *292:15 *345:15 0.190694
13 *295:31 *345:15 0.0134981
14 *295:41 *345:15 7.55653e-05
15 *298:35 *345:21 0.000232049
16 *312:9 *345:11 0.0326896
17 *323:21 *345:11 0.00627131
18 *326:15 *345:15 0.18962
19 *329:19 *345:21 0.000406974
20 *330:15 *345:15 1.06173e-05
21 *331:9 *345:9 0
22 *331:23 *345:21 4.39334e-05
23 *332:15 *345:15 6.7745e-05
24 *340:6 *345:11 0.0125949
*RES
1 *537:module_status_flags_out[80] *345:9 10.5893 
2 *345:9 *345:11 60.5061 
3 *345:11 *345:13 8 
4 *345:13 *345:15 2426.59 
5 *345:15 *345:21 34.4329 
6 *345:21 la_data_out[80] 16.095 
*END

*D_NET *346 0.397088
*CONN
*P la_data_out[81] O
*I *537:module_status_flags_out[81] O *D phase_099_top_integration
*CAP
1 la_data_out[81] 0.050735
2 *537:module_status_flags_out[81] 0.00408645
3 *346:13 0.050735
4 *346:11 0.00408645
5 la_data_out[81] *364:9 0
6 *346:11 *352:21 0.000122949
7 *64:13 *346:11 0.0186531
8 *131:9 la_data_out[81] 0.00646705
9 *304:15 la_data_out[81] 0.0985452
10 *312:9 *346:11 0.00106755
11 *312:13 la_data_out[81] 0.000246483
12 *318:11 *346:11 0.0165552
13 *321:22 la_data_out[81] 0.0981339
14 *323:25 la_data_out[81] 0.0476533
15 *334:15 la_data_out[81] 0
16 *337:9 la_data_out[81] 0
*RES
1 *537:module_status_flags_out[81] *346:11 47.8388 
2 *346:11 *346:13 8 
3 *346:13 la_data_out[81] 2444.65 
*END

*D_NET *347 0.157103
*CONN
*P la_data_out[82] O
*I *537:module_status_flags_out[82] O *D phase_099_top_integration
*CAP
1 la_data_out[82] 0.0763329
2 *537:module_status_flags_out[82] 0.0019898
3 *347:7 0.0783227
4 *30:17 la_data_out[82] 0
5 *138:7 *347:7 0.000457683
*RES
1 *537:module_status_flags_out[82] *347:7 13.6523 
2 *347:7 la_data_out[82] 1756.56 
*END

*D_NET *348 0.173655
*CONN
*P la_data_out[83] O
*I *537:module_status_flags_out[83] O *D phase_099_top_integration
*CAP
1 la_data_out[83] 0.00146509
2 *537:module_status_flags_out[83] 9.62404e-05
3 *348:13 0.00757792
4 *348:11 0.00611283
5 *348:9 0.0510761
6 *348:7 0.0511723
7 *348:13 *349:13 0.000345447
8 *348:13 *354:13 0.029884
9 *194:9 *348:13 0.00246765
10 *343:13 *348:13 0.0234579
*RES
1 *537:module_status_flags_out[83] *348:7 1.86429 
2 *348:7 *348:9 1173.48 
3 *348:9 *348:11 8 
4 *348:11 *348:13 56.6421 
5 *348:13 la_data_out[83] 33.4268 
*END

*D_NET *349 0.231204
*CONN
*P la_data_out[84] O
*I *537:module_status_flags_out[84] O *D phase_099_top_integration
*CAP
1 la_data_out[84] 0.00138067
2 *537:module_status_flags_out[84] 9.05605e-05
3 *349:13 0.0136198
4 *349:11 0.0122391
5 *349:9 0.0511384
6 *349:7 0.051229
7 *349:13 *350:13 0.0016655
8 *349:13 *354:13 0.0316929
9 *349:13 *356:13 0.0502002
10 la_data_out[52] *349:9 0
11 *309:147 *349:13 0
12 *324:13 *349:13 0.0166189
13 *343:13 *349:13 0.000983661
14 *348:13 *349:13 0.000345447
*RES
1 *537:module_status_flags_out[84] *349:7 1.86429 
2 *349:7 *349:9 1174.89 
3 *349:9 *349:11 8 
4 *349:11 *349:13 106.874 
5 *349:13 la_data_out[84] 32.0182 
*END

*D_NET *350 0.236827
*CONN
*P la_data_out[85] O
*I *537:module_status_flags_out[85] O *D phase_099_top_integration
*CAP
1 la_data_out[85] 0.00118213
2 *537:module_status_flags_out[85] 8.48806e-05
3 *350:21 0.012858
4 *350:19 0.0120725
5 *350:13 0.0110442
6 *350:11 0.0106476
7 *350:9 0.0509615
8 *350:7 0.0510464
9 *194:9 *350:13 0.0466996
10 *292:19 *350:21 0.0191004
11 *309:145 *350:19 0
12 *324:13 *350:13 0.0125673
13 *329:19 *350:21 0
14 *330:19 *350:21 0
15 *332:19 *350:21 0.00146879
16 *338:42 *350:21 0
17 *339:9 *350:19 2.24054e-06
18 *340:22 *350:21 0
19 *343:13 *350:13 0.00542572
20 *349:13 *350:13 0.0016655
*RES
1 *537:module_status_flags_out[85] *350:7 1.86429 
2 *350:7 *350:9 1172.08 
3 *350:9 *350:11 8 
4 *350:11 *350:13 86.352 
5 *350:13 *350:19 30.0118 
6 *350:19 *350:21 322.211 
7 *350:21 la_data_out[85] 34.9686 
*END

*D_NET *351 0.383444
*CONN
*P la_data_out[86] O
*I *537:module_status_flags_out[86] O *D phase_099_top_integration
*CAP
1 la_data_out[86] 0.10618
2 *537:module_status_flags_out[86] 0.00173783
3 *351:21 0.10618
4 *351:19 0.00965498
5 *351:17 0.00965498
6 *351:15 0.00173783
7 *351:15 *362:7 0
8 *351:19 *352:21 0.00497872
9 *351:19 *362:9 0.0653155
10 *64:13 *351:19 0.000473527
11 *274:11 *351:15 0.00775275
12 *291:9 *351:15 0
13 *309:11 *351:19 0.0487767
14 *312:9 *351:19 0.00966496
15 *317:19 *351:15 0.00775275
16 *326:9 *351:15 0
17 *340:6 *351:19 0.000557646
18 *344:11 *351:19 0.00302576
*RES
1 *537:module_status_flags_out[86] *351:15 38.2745 
2 *351:15 *351:17 15 
3 *351:17 *351:19 715.264 
4 *351:19 *351:21 15 
5 *351:21 la_data_out[86] 2443.42 
*END

*D_NET *352 0.299753
*CONN
*P la_data_out[87] O
*I *537:module_status_flags_out[87] O *D phase_099_top_integration
*CAP
1 la_data_out[87] 0.106211
2 *537:module_status_flags_out[87] 0.00125413
3 *352:23 0.106211
4 *352:21 0.0112071
5 *352:19 0.0124612
6 *352:19 *353:11 0.000689346
7 *352:19 *362:9 0.00059709
8 *352:21 *362:9 0.000651486
9 *62:13 *352:21 0.00388145
10 *64:13 *352:21 0.0013077
11 *309:11 *352:21 0.0316976
12 *312:9 *352:19 0.00325919
13 *318:11 *352:21 0.00635821
14 *331:9 *352:19 0.000113362
15 *340:6 *352:19 0.0015614
16 *344:11 *352:21 0.00718996
17 *346:11 *352:21 0.000122949
18 *351:19 *352:21 0.00497872
*RES
1 *537:module_status_flags_out[87] *352:19 42.4835 
2 *352:19 *352:21 461.804 
3 *352:21 *352:23 15 
4 *352:23 la_data_out[87] 2444.12 
*END

*D_NET *353 0.39222
*CONN
*P la_data_out[88] O
*I *537:module_status_flags_out[88] O *D phase_099_top_integration
*CAP
1 la_data_out[88] 0.106116
2 *537:module_status_flags_out[88] 0.000167085
3 *353:13 0.106116
4 *353:11 0.0314528
5 *353:9 0.0316199
6 *353:11 *362:9 0.0754786
7 *66:13 *353:11 0.000213654
8 *296:9 *353:11 0.0190289
9 *299:15 *353:11 0.00062091
10 *304:11 *353:11 0
11 *312:9 *353:11 0.0053612
12 *314:11 *353:11 0
13 *338:10 *353:11 0.00101105
14 *338:18 *353:11 0
15 *344:11 *353:11 0.000192174
16 *344:19 *353:11 0.00771212
17 *345:11 *353:11 0.00644004
18 *352:19 *353:11 0.000689346
*RES
1 *537:module_status_flags_out[88] *353:9 18.2418 
2 *353:9 *353:11 1054.48 
3 *353:11 *353:13 15 
4 *353:13 la_data_out[88] 2442.71 
*END

*D_NET *354 0.198406
*CONN
*P la_data_out[89] O
*I *537:module_status_flags_out[89] O *D phase_099_top_integration
*CAP
1 la_data_out[89] 0.00140143
2 *537:module_status_flags_out[89] 9.64207e-05
3 *354:13 0.00972178
4 *354:11 0.00832035
5 *354:9 0.0487592
6 *354:7 0.0488556
7 *354:13 *356:13 0.00481361
8 *194:9 *354:13 0.00300029
9 *318:55 *354:9 0.0118606
10 *348:13 *354:13 0.029884
11 *349:13 *354:13 0.0316929
*RES
1 *537:module_status_flags_out[89] *354:7 1.86429 
2 *354:7 *354:9 1174.19 
3 *354:9 *354:11 8 
4 *354:11 *354:13 75.2752 
5 *354:13 la_data_out[89] 32.7225 
*END

*D_NET *355 0.4411
*CONN
*P wbs_dat_o[8] O
*P la_data_out[8] O
*I *537:module_status_flags_out[8] O *D phase_099_top_integration
*CAP
1 wbs_dat_o[8] 0.000742571
2 la_data_out[8] 0.000998132
3 *537:module_status_flags_out[8] 0.00120142
4 *355:39 0.00946764
5 *355:37 0.00885653
6 *355:31 0.00727697
7 *355:29 0.00714551
8 *355:21 0.0040508
9 *355:19 0.00310076
10 *355:17 0.0451081
11 *355:15 0.04506
12 *355:13 0.0737558
13 *355:11 0.0737558
14 *355:9 0.0169722
15 *355:7 0.0181736
16 *355:7 *364:7 0.000183769
17 *355:9 *364:9 0.0487651
18 *355:31 *364:23 0.0198103
19 *355:39 *364:31 0.0312667
20 wbs_dat_o[11] *355:39 0.00134905
21 wbs_dat_o[12] *355:39 0.00020552
22 *134:27 *355:39 0.000514356
23 *136:43 *355:39 0.000570451
24 *272:41 *355:39 0.000488021
25 *275:9 *355:7 3.47048e-05
26 *275:41 *355:39 0.000839242
27 *276:33 *355:39 0.00735248
28 *278:23 *355:39 0.000378086
29 *279:53 *355:39 0.00516301
30 *282:37 la_data_out[8] 0
31 *285:31 *355:31 0
32 *285:31 *355:39 0.000575796
33 *287:29 *355:39 0.00173108
34 *288:31 *355:31 0.00364354
35 *299:57 *355:13 0
36 *329:15 *355:9 0
37 *333:37 *355:39 0.00242129
38 *337:9 *355:9 0.000141236
*RES
1 *537:module_status_flags_out[8] *355:7 10.8187 
2 *355:7 *355:9 622.734 
3 *355:9 *355:11 8 
4 *355:11 *355:13 242.372 
5 *355:13 *355:15 8 
6 *355:15 *355:17 1039.48 
7 *355:17 *355:19 1.09786 
8 *355:19 *355:21 67.4146 
9 *355:21 la_data_out[8] 16.7993 
10 *355:21 *355:29 15 
11 *355:29 *355:31 233.119 
12 *355:31 *355:37 25.0818 
13 *355:37 *355:39 62.9104 
14 *355:39 wbs_dat_o[8] 22.8625 
*END

*D_NET *356 0.21882
*CONN
*P la_data_out[90] O
*I *537:module_status_flags_out[90] O *D phase_099_top_integration
*CAP
1 la_data_out[90] 0.00132838
2 *537:module_status_flags_out[90] 9.05605e-05
3 *356:13 0.0190009
4 *356:11 0.0176725
5 *356:9 0.0502684
6 *356:7 0.050359
7 la_data_out[56] *356:9 0.00208215
8 *194:9 *356:13 0
9 *205:17 *356:13 0
10 *298:33 *356:13 0
11 *309:147 *356:13 0.00363122
12 *317:129 *356:9 0
13 *332:19 *356:13 0
14 *342:13 *356:13 0.0193725
15 *349:13 *356:13 0.0502002
16 *354:13 *356:13 0.00481361
*RES
1 *537:module_status_flags_out[90] *356:7 1.86429 
2 *356:7 *356:9 1175.6 
3 *356:9 *356:11 8 
4 *356:11 *356:13 112.885 
5 *356:13 la_data_out[90] 31.3139 
*END

*D_NET *357 0.243406
*CONN
*P la_data_out[91] O
*I *537:module_status_flags_out[91] O *D phase_099_top_integration
*CAP
1 la_data_out[91] 0.106422
2 *537:module_status_flags_out[91] 0.000670905
3 *357:13 0.106422
4 *357:11 0.0101625
5 *357:9 0.0108334
6 *52:21 *357:11 0.00292687
7 *104:13 la_data_out[91] 0
8 *298:11 *357:11 0.00444914
9 *323:21 *357:9 0.000232058
10 *330:11 *357:11 0.0012874
11 *341:13 *357:9 0
*RES
1 *537:module_status_flags_out[91] *357:9 25.7611 
2 *357:9 *357:11 245.506 
3 *357:11 *357:13 15 
4 *357:13 la_data_out[91] 2449.75 
*END

*D_NET *358 0.275201
*CONN
*P la_data_out[92] O
*I *537:module_status_flags_out[92] O *D phase_099_top_integration
*CAP
1 la_data_out[92] 0.00176177
2 *537:module_status_flags_out[92] 8.55248e-05
3 *358:13 0.0361507
4 *358:11 0.0343889
5 *358:9 0.0519777
6 *358:7 0.0520632
7 io_oeb[37] *358:13 0.000875646
8 *75:9 *358:13 0.0287894
9 *301:7 *358:7 0
10 *301:9 *358:9 0
11 *323:29 *358:13 0.0363033
12 *325:26 *358:13 0.0328047
*RES
1 *537:module_status_flags_out[92] *358:7 1.86429 
2 *358:7 *358:9 1166.44 
3 *358:9 *358:11 8 
4 *358:11 *358:13 182.609 
5 *358:13 la_data_out[92] 40.4696 
*END

*D_NET *359 0.196298
*CONN
*P la_data_out[93] O
*I *537:module_status_flags_out[93] O *D phase_099_top_integration
*CAP
1 la_data_out[93] 0.0517603
2 *537:module_status_flags_out[93] 0.000645799
3 *359:15 0.0517603
4 *359:13 0.0181871
5 *359:11 0.0188329
6 *359:13 *361:13 0.0389486
7 *304:19 *359:13 0.00495783
8 *305:11 *359:11 0
9 *314:19 *359:13 0.00482764
10 *321:26 *359:13 0.00123037
11 *327:15 *359:13 0.00514729
12 *342:7 *359:11 0
13 *342:9 *359:11 0
*RES
1 *537:module_status_flags_out[93] *359:11 20.5736 
2 *359:11 *359:13 86.1803 
3 *359:13 *359:15 8 
4 *359:15 la_data_out[93] 1188.2 
*END

*D_NET *360 0.178639
*CONN
*P la_data_out[94] O
*I *537:module_status_flags_out[94] O *D phase_099_top_integration
*CAP
1 la_data_out[94] 0.00547732
2 *537:module_status_flags_out[94] 0.00072197
3 *360:23 0.00547732
4 *360:21 0.0357909
5 *360:19 0.0357909
6 *360:17 0.0467785
7 *360:15 0.0475005
8 *76:9 *360:15 9.74935e-05
9 *311:13 *360:15 0.000779699
10 *320:35 *360:15 0.000224209
*RES
1 *537:module_status_flags_out[94] *360:15 26.5679 
2 *360:15 *360:17 1076.29 
3 *360:17 *360:19 8 
4 *360:19 *360:21 117.436 
5 *360:21 *360:23 8 
6 *360:23 la_data_out[94] 115.575 
*END

*D_NET *361 0.187651
*CONN
*P la_data_out[95] O
*I *537:module_status_flags_out[95] O *D phase_099_top_integration
*CAP
1 la_data_out[95] 0.0517667
2 *537:module_status_flags_out[95] 0.000568331
3 *361:15 0.0517667
4 *361:13 0.0134888
5 *361:11 0.0140571
6 *321:26 *361:13 0.0170543
7 *359:13 *361:13 0.0389486
*RES
1 *537:module_status_flags_out[95] *361:11 19.8693 
2 *361:11 *361:13 78.9675 
3 *361:13 *361:15 8 
4 *361:15 la_data_out[95] 1188.91 
*END

*D_NET *362 0.402414
*CONN
*P la_data_out[96] O
*I *537:module_status_flags_out[96] O *D phase_099_top_integration
*CAP
1 la_data_out[96] 0.106036
2 *537:module_status_flags_out[96] 8.72297e-05
3 *362:11 0.106036
4 *362:9 0.0181947
5 *362:7 0.0182819
6 *62:13 *362:9 0
7 *66:13 *362:9 0.000213654
8 *312:9 *362:9 0.0040379
9 *344:11 *362:9 0.00198593
10 *345:11 *362:9 0.00549859
11 *351:15 *362:7 0
12 *351:19 *362:9 0.0653155
13 *352:19 *362:9 0.00059709
14 *352:21 *362:9 0.000651486
15 *353:11 *362:9 0.0754786
*RES
1 *537:module_status_flags_out[96] *362:7 16.305 
2 *362:7 *362:9 973.25 
3 *362:9 *362:11 15 
4 *362:11 la_data_out[96] 2443.06 
*END

*D_NET *363 0.403577
*CONN
*P la_data_out[97] O
*I *537:module_status_flags_out[97] O *D phase_099_top_integration
*CAP
1 la_data_out[97] 0.105521
2 *537:module_status_flags_out[97] 0.00142012
3 *363:29 0.105521
4 *363:27 0.0149211
5 *363:25 0.0149211
6 *363:23 0.000584596
7 *363:19 0.00940311
8 *363:17 0.0102386
9 *537:rf_adc_i_in[4] *363:17 0
10 *30:21 *363:19 0.0638724
11 *31:9 *363:23 0.000598011
12 *61:19 *363:23 0.000170524
13 *61:21 *363:19 0.00206888
14 *61:29 *363:17 0.000772553
15 *62:21 *363:19 0.000713115
16 *63:21 *363:19 0.0494054
17 *64:23 *363:19 0.00161923
18 *126:11 *363:17 0.00328952
19 *126:11 *363:19 0.000919152
20 *272:11 *363:17 0.000339794
21 *277:11 *363:19 0.00028769
22 *289:11 *363:19 0.000442438
23 *291:11 *363:19 0.0082011
24 *317:17 *363:17 0.0018813
25 *317:31 *363:23 0.000103868
26 *320:15 *363:23 0.00151738
27 *329:11 *363:19 0
28 *330:11 *363:19 0.00121655
29 *332:13 *363:19 0.00257659
30 *341:13 *363:19 0.00105167
*RES
1 *537:module_status_flags_out[97] *363:17 49.1327 
2 *363:17 *363:19 704.306 
3 *363:19 *363:23 35.5693 
4 *363:23 *363:25 15 
5 *363:25 *363:27 306.012 
6 *363:27 *363:29 15 
7 *363:29 la_data_out[97] 2431.44 
*END

*D_NET *364 0.472221
*CONN
*P la_data_out[9] O
*P wbs_dat_o[9] O
*I *537:module_status_flags_out[9] O *D phase_099_top_integration
*CAP
1 la_data_out[9] 0.000970404
2 wbs_dat_o[9] 0.000783024
3 *537:module_status_flags_out[9] 0.00116126
4 *364:31 0.0120334
5 *364:29 0.0113185
6 *364:23 0.00409356
7 *364:21 0.00507786
8 *364:17 0.0472991
9 *364:15 0.0472171
10 *364:13 0.072552
11 *364:11 0.072552
12 *364:9 0.00870911
13 *364:7 0.00987037
14 la_data_out[81] *364:9 0
15 *105:5 *364:17 0
16 *131:7 *364:7 0
17 *131:9 *364:9 0.00481467
18 *282:7 *364:7 8.61573e-05
19 *283:23 *364:31 0.00150343
20 *285:31 *364:23 0
21 *286:51 *364:31 0.00172344
22 *287:29 *364:31 0.000496847
23 *288:31 *364:23 0.00444677
24 *288:31 *364:31 0.00370596
25 *289:27 *364:21 0.000222104
26 *289:27 *364:23 0.0161425
27 *290:33 *364:31 0.000246848
28 *291:35 *364:23 0.000337556
29 *299:71 *364:13 0
30 *329:15 *364:9 0
31 *337:9 *364:9 0.0448312
32 *355:7 *364:7 0.000183769
33 *355:9 *364:9 0.0487651
34 *355:31 *364:23 0.0198103
35 *355:39 *364:31 0.0312667
*RES
1 *537:module_status_flags_out[9] *364:7 10.7328 
2 *364:7 *364:9 640.341 
3 *364:9 *364:11 8 
4 *364:11 *364:13 238.422 
5 *364:13 *364:15 8 
6 *364:15 *364:17 1085.98 
7 *364:17 *364:21 17.5271 
8 *364:21 *364:23 230.26 
9 *364:23 *364:29 24.0254 
10 *364:29 *364:31 63.3397 
11 *364:31 wbs_dat_o[9] 23.5668 
12 *364:21 la_data_out[9] 31.4471 
*END

*D_NET *455 0.338861
*CONN
*P user_clock2 I
*I *537:clk_2p4g I *D phase_099_top_integration
*CAP
1 user_clock2 0.000737014
2 *537:clk_2p4g 0.000768936
3 *455:25 0.00847972
4 *455:23 0.00782017
5 *455:17 0.0759937
6 *455:15 0.0758843
7 *455:13 0.0505796
8 *455:11 0.0505796
9 *455:9 0.0118473
10 *455:7 0.0125843
11 *537:rf_adc_q_in[10] *537:clk_2p4g 0
12 *537:rf_adc_q_in[15] *455:25 0.000122549
13 *49:15 *455:25 0.000909913
14 *273:13 *455:25 0
15 *285:21 *455:17 0.0112275
16 *285:21 *455:25 0.00170236
17 *288:17 *455:23 0
18 *289:19 *455:25 0.0218641
19 *294:23 *455:9 0.00528344
20 *295:53 *455:9 0.00241023
21 *299:21 *537:clk_2p4g 6.61056e-05
22 *304:19 *455:17 0
23 *314:19 *455:17 0
*RES
1 user_clock2 *455:7 31.095 
2 *455:7 *455:9 290.766 
3 *455:9 *455:11 15 
4 *455:11 *455:13 1168.91 
5 *455:13 *455:15 15 
6 *455:15 *455:17 1582.84 
7 *455:17 *455:23 25.0818 
8 *455:23 *455:25 42.8176 
9 *455:25 *537:clk_2p4g 22.79 
*END

*D_NET *464 0.230033
*CONN
*P wb_clk_i I
*I *537:clk_dsp I *D phase_099_top_integration
*CAP
1 wb_clk_i 0.00162388
2 *537:clk_dsp 8.48806e-05
3 *464:13 0.0490226
4 *464:11 0.0489377
5 *464:9 0.061172
6 *464:7 0.0627959
7 io_oeb[37] *464:9 0
8 *86:5 *464:13 0.00393849
9 *90:11 *464:9 0.000441899
10 *134:13 *464:9 0
11 *308:79 *464:13 0.00201568
*RES
1 wb_clk_i *464:7 45.3996 
2 *464:7 *464:9 205.191 
3 *464:9 *464:11 8 
4 *464:11 *464:13 1161.51 
5 *464:13 *537:clk_dsp 1.86429 
*END

*D_NET *466 0.00147322
*CONN
*P wbs_ack_o O
*P wbs_stb_i I
*CAP
1 wbs_ack_o 0.00073661
2 wbs_stb_i 0.00073661
*RES
1 wbs_stb_i wbs_ack_o 45.2871 
*END
