*SPEF "ieee 1481-1999"
*DESIGN "user_project_wrapper"
*DATE "11:11:11 Fri 11 11, 1111"
*VENDOR "OpenRCX"
*PROGRAM "Parallel Extraction"
*VERSION "1.0"
*DESIGN_FLOW "NAME_SCOPE LOCAL" "PIN_CAP NONE"
*DIVIDER /
*DELIMITER :
*BUS_DELIMITER []
*T_UNIT 1 NS
*C_UNIT 1 PF
*R_UNIT 1 OHM
*L_UNIT 1 HENRY

*NAME_MAP
*1 analog_io[0]
*2 analog_io[10]
*3 analog_io[11]
*4 analog_io[12]
*5 analog_io[13]
*6 analog_io[14]
*7 analog_io[15]
*8 analog_io[16]
*9 analog_io[17]
*10 analog_io[18]
*11 analog_io[19]
*12 analog_io[1]
*13 analog_io[20]
*14 analog_io[21]
*15 analog_io[22]
*16 analog_io[23]
*17 analog_io[24]
*18 analog_io[25]
*19 analog_io[26]
*20 analog_io[27]
*21 analog_io[28]
*22 analog_io[2]
*23 analog_io[3]
*24 analog_io[4]
*25 analog_io[5]
*26 analog_io[6]
*27 analog_io[7]
*28 analog_io[8]
*29 analog_io[9]
*30 io_in[0]
*31 io_in[10]
*32 io_in[11]
*33 io_in[12]
*34 io_in[13]
*35 io_in[14]
*36 io_in[15]
*37 io_in[16]
*38 io_in[17]
*39 io_in[18]
*40 io_in[19]
*41 io_in[1]
*42 io_in[20]
*43 io_in[21]
*44 io_in[22]
*45 io_in[23]
*46 io_in[24]
*47 io_in[25]
*48 io_in[26]
*49 io_in[27]
*50 io_in[28]
*51 io_in[29]
*52 io_in[2]
*53 io_in[30]
*54 io_in[31]
*55 io_in[32]
*56 io_in[33]
*57 io_in[34]
*58 io_in[35]
*59 io_in[36]
*60 io_in[37]
*61 io_in[3]
*62 io_in[4]
*63 io_in[5]
*64 io_in[6]
*65 io_in[7]
*66 io_in[8]
*67 io_in[9]
*68 la_oenb[0]
*69 la_oenb[10]
*70 la_oenb[11]
*71 la_oenb[12]
*72 la_oenb[13]
*73 la_oenb[14]
*74 la_oenb[15]
*75 la_oenb[16]
*76 la_oenb[17]
*77 la_oenb[18]
*78 la_oenb[19]
*79 la_oenb[1]
*80 la_oenb[20]
*81 la_oenb[21]
*82 la_oenb[22]
*83 la_oenb[23]
*84 la_oenb[24]
*85 la_oenb[25]
*86 la_oenb[26]
*87 la_oenb[27]
*88 la_oenb[28]
*89 la_oenb[29]
*90 la_oenb[2]
*91 la_oenb[30]
*92 la_oenb[31]
*93 la_oenb[32]
*94 la_oenb[33]
*95 la_oenb[34]
*96 la_oenb[35]
*97 la_oenb[36]
*98 la_oenb[37]
*99 la_oenb[3]
*100 la_oenb[4]
*101 la_oenb[5]
*102 la_oenb[6]
*103 la_oenb[7]
*104 la_oenb[8]
*105 la_oenb[9]
*106 io_out[0]
*107 io_out[10]
*108 io_out[11]
*109 io_out[12]
*110 io_out[13]
*111 io_out[14]
*112 io_out[15]
*113 io_out[16]
*114 io_out[17]
*115 io_out[18]
*116 io_out[19]
*117 io_out[1]
*118 io_out[20]
*119 io_out[21]
*120 io_out[22]
*121 io_out[23]
*122 io_out[24]
*123 io_out[25]
*124 io_out[26]
*125 io_out[27]
*126 io_out[28]
*127 io_out[29]
*128 io_out[2]
*129 io_out[30]
*130 io_out[31]
*131 chip_ready_out
*132 io_out[33]
*133 io_out[34]
*134 io_out[35]
*135 io_out[36]
*136 io_out[37]
*137 io_out[3]
*138 io_out[4]
*139 io_out[5]
*140 io_out[6]
*141 io_out[7]
*142 io_out[8]
*143 io_out[9]
*144 la_data_in[0]
*145 la_data_in[100]
*146 la_data_in[101]
*147 la_data_in[102]
*148 la_data_in[103]
*149 la_data_in[104]
*150 la_data_in[105]
*151 la_data_in[106]
*152 la_data_in[107]
*153 la_data_in[108]
*154 la_data_in[109]
*155 la_data_in[10]
*156 la_data_in[110]
*157 la_data_in[111]
*158 la_data_in[112]
*159 la_data_in[113]
*160 la_data_in[114]
*161 la_data_in[115]
*162 la_data_in[116]
*163 la_data_in[117]
*164 la_data_in[118]
*165 la_data_in[119]
*166 la_data_in[11]
*167 la_data_in[120]
*168 la_data_in[121]
*169 la_data_in[122]
*170 la_data_in[123]
*171 la_data_in[124]
*172 la_data_in[125]
*173 la_data_in[126]
*174 la_data_in[127]
*175 la_data_in[12]
*176 la_data_in[13]
*177 la_data_in[14]
*178 la_data_in[15]
*179 la_data_in[16]
*180 la_data_in[17]
*181 la_data_in[18]
*182 la_data_in[19]
*183 la_data_in[1]
*184 la_data_in[20]
*185 la_data_in[21]
*186 la_data_in[22]
*187 la_data_in[23]
*188 la_data_in[24]
*189 la_data_in[25]
*190 la_data_in[26]
*191 la_data_in[27]
*192 la_data_in[28]
*193 la_data_in[29]
*194 la_data_in[2]
*195 la_data_in[30]
*196 la_data_in[31]
*197 la_data_in[32]
*198 la_data_in[33]
*199 la_data_in[34]
*200 la_data_in[35]
*201 la_data_in[36]
*202 la_data_in[37]
*203 la_data_in[38]
*204 la_data_in[39]
*205 la_data_in[3]
*206 la_data_in[40]
*207 la_data_in[41]
*208 la_data_in[42]
*209 la_data_in[43]
*210 la_data_in[44]
*211 la_data_in[45]
*212 la_data_in[46]
*213 la_data_in[47]
*214 la_data_in[48]
*215 la_data_in[49]
*216 la_data_in[4]
*217 la_data_in[50]
*218 la_data_in[51]
*219 la_data_in[52]
*220 la_data_in[53]
*221 la_data_in[54]
*222 la_data_in[55]
*223 la_data_in[56]
*224 la_data_in[57]
*225 la_data_in[58]
*226 la_data_in[59]
*227 la_data_in[5]
*228 la_data_in[60]
*229 la_data_in[61]
*230 la_data_in[62]
*231 la_data_in[63]
*232 la_data_in[64]
*233 la_data_in[65]
*234 la_data_in[66]
*235 la_data_in[67]
*236 la_data_in[68]
*237 la_data_in[69]
*238 la_data_in[6]
*239 la_data_in[70]
*240 la_data_in[71]
*241 la_data_in[72]
*242 la_data_in[73]
*243 la_data_in[74]
*244 la_data_in[75]
*245 la_data_in[76]
*246 la_data_in[77]
*247 la_data_in[78]
*248 la_data_in[79]
*249 la_data_in[7]
*250 la_data_in[80]
*251 la_data_in[81]
*252 la_data_in[82]
*253 la_data_in[83]
*254 la_data_in[84]
*255 la_data_in[85]
*256 la_data_in[86]
*257 la_data_in[87]
*258 la_data_in[88]
*259 la_data_in[89]
*260 la_data_in[8]
*261 la_data_in[90]
*262 la_data_in[91]
*263 la_data_in[92]
*264 la_data_in[93]
*265 la_data_in[94]
*266 la_data_in[95]
*267 la_data_in[96]
*268 la_data_in[97]
*269 la_data_in[98]
*270 la_data_in[99]
*271 la_data_in[9]
*272 la_data_out[10]
*273 la_data_out[11]
*274 la_data_out[12]
*275 la_data_out[13]
*276 la_data_out[14]
*277 la_data_out[15]
*278 la_data_out[16]
*279 la_data_out[17]
*280 la_data_out[18]
*281 la_data_out[19]
*282 la_data_out[20]
*283 la_data_out[21]
*284 la_data_out[22]
*285 la_data_out[23]
*286 la_data_out[24]
*287 la_data_out[25]
*288 la_data_out[26]
*289 la_data_out[27]
*290 la_data_out[28]
*291 la_data_out[29]
*292 la_data_out[30]
*293 la_data_out[31]
*294 la_data_out[32]
*295 la_data_out[33]
*296 la_data_out[34]
*297 la_data_out[35]
*298 la_data_out[36]
*299 la_data_out[37]
*300 la_data_out[38]
*301 la_data_out[39]
*302 la_data_out[40]
*303 la_data_out[41]
*304 la_data_out[42]
*305 la_data_out[43]
*306 la_data_out[44]
*307 la_data_out[45]
*308 la_data_out[46]
*309 la_data_out[47]
*310 la_data_out[48]
*311 la_data_out[49]
*312 la_data_out[50]
*313 la_data_out[51]
*314 la_data_out[52]
*315 la_data_out[53]
*316 la_data_out[54]
*317 la_data_out[55]
*318 la_data_out[56]
*319 la_data_out[57]
*320 la_data_out[58]
*321 la_data_out[59]
*322 la_data_out[5]
*323 la_data_out[60]
*324 la_data_out[61]
*325 la_data_out[62]
*326 la_data_out[63]
*327 la_data_out[64]
*328 la_data_out[65]
*329 la_data_out[66]
*330 la_data_out[67]
*331 la_data_out[68]
*332 la_data_out[69]
*333 la_data_out[6]
*334 la_data_out[70]
*335 la_data_out[71]
*336 la_data_out[72]
*337 la_data_out[73]
*338 la_data_out[74]
*339 la_data_out[75]
*340 la_data_out[76]
*341 la_data_out[77]
*342 la_data_out[78]
*343 la_data_out[79]
*344 la_data_out[7]
*345 la_data_out[80]
*346 la_data_out[81]
*347 la_data_out[82]
*348 la_data_out[83]
*349 la_data_out[84]
*350 la_data_out[85]
*351 la_data_out[86]
*352 la_data_out[87]
*353 la_data_out[88]
*354 la_data_out[89]
*355 la_data_out[8]
*356 la_data_out[90]
*357 la_data_out[91]
*358 la_data_out[92]
*359 la_data_out[93]
*360 la_data_out[94]
*361 la_data_out[95]
*362 la_data_out[96]
*363 la_data_out[97]
*364 la_data_out[9]
*365 la_oenb[100]
*366 la_oenb[101]
*367 la_oenb[102]
*368 la_oenb[103]
*369 la_oenb[104]
*370 la_oenb[105]
*371 la_oenb[106]
*372 la_oenb[107]
*373 la_oenb[108]
*374 la_oenb[109]
*375 la_oenb[110]
*376 la_oenb[111]
*377 la_oenb[112]
*378 la_oenb[113]
*379 la_oenb[114]
*380 la_oenb[115]
*381 la_oenb[116]
*382 la_oenb[117]
*383 la_oenb[118]
*384 la_oenb[119]
*385 la_oenb[120]
*386 la_oenb[121]
*387 la_oenb[122]
*388 la_oenb[123]
*389 la_oenb[124]
*390 la_oenb[125]
*391 la_oenb[126]
*392 la_oenb[127]
*393 la_oenb[38]
*394 la_oenb[39]
*395 la_oenb[40]
*396 la_oenb[41]
*397 la_oenb[42]
*398 la_oenb[43]
*399 la_oenb[44]
*400 la_oenb[45]
*401 la_oenb[46]
*402 la_oenb[47]
*403 la_oenb[48]
*404 la_oenb[49]
*405 la_oenb[50]
*406 la_oenb[51]
*407 la_oenb[52]
*408 la_oenb[53]
*409 la_oenb[54]
*410 la_oenb[55]
*411 la_oenb[56]
*412 la_oenb[57]
*413 la_oenb[58]
*414 la_oenb[59]
*415 la_oenb[60]
*416 la_oenb[61]
*417 la_oenb[62]
*418 la_oenb[63]
*419 la_oenb[64]
*420 la_oenb[65]
*421 la_oenb[66]
*422 la_oenb[67]
*423 la_oenb[68]
*424 la_oenb[69]
*425 la_oenb[70]
*426 la_oenb[71]
*427 la_oenb[72]
*428 la_oenb[73]
*429 la_oenb[74]
*430 la_oenb[75]
*431 la_oenb[76]
*432 la_oenb[77]
*433 la_oenb[78]
*434 la_oenb[79]
*435 la_oenb[80]
*436 la_oenb[81]
*437 la_oenb[82]
*438 la_oenb[83]
*439 la_oenb[84]
*440 la_oenb[85]
*441 la_oenb[86]
*442 la_oenb[87]
*443 la_oenb[88]
*444 la_oenb[89]
*445 la_oenb[90]
*446 la_oenb[91]
*447 la_oenb[92]
*448 la_oenb[93]
*449 la_oenb[94]
*450 la_oenb[95]
*451 la_oenb[96]
*452 la_oenb[97]
*453 la_oenb[98]
*454 la_oenb[99]
*455 user_clock2
*464 wb_clk_i
*465 wb_rst_i
*466 wbs_stb_i
*467 wbs_adr_i[0]
*468 wbs_adr_i[10]
*469 wbs_adr_i[11]
*470 wbs_adr_i[12]
*471 wbs_adr_i[13]
*472 wbs_adr_i[14]
*473 wbs_adr_i[15]
*474 wbs_adr_i[16]
*475 wbs_adr_i[17]
*476 wbs_adr_i[18]
*477 wbs_adr_i[19]
*478 wbs_adr_i[1]
*479 wbs_adr_i[20]
*480 wbs_adr_i[21]
*481 wbs_adr_i[22]
*482 wbs_adr_i[23]
*483 wbs_adr_i[24]
*484 wbs_adr_i[25]
*485 wbs_adr_i[26]
*486 wbs_adr_i[27]
*487 wbs_adr_i[28]
*488 wbs_adr_i[29]
*489 wbs_adr_i[2]
*490 wbs_adr_i[30]
*491 wbs_adr_i[31]
*492 wbs_adr_i[3]
*493 wbs_adr_i[4]
*494 wbs_adr_i[5]
*495 wbs_adr_i[6]
*496 wbs_adr_i[7]
*497 wbs_adr_i[8]
*498 wbs_adr_i[9]
*499 wbs_cyc_i
*500 wbs_dat_i[0]
*501 wbs_dat_i[10]
*502 wbs_dat_i[11]
*503 wbs_dat_i[12]
*504 wbs_dat_i[13]
*505 wbs_dat_i[14]
*506 wbs_dat_i[15]
*507 wbs_dat_i[16]
*508 wbs_dat_i[17]
*509 wbs_dat_i[18]
*510 wbs_dat_i[19]
*511 wbs_dat_i[1]
*512 wbs_dat_i[20]
*513 wbs_dat_i[21]
*514 wbs_dat_i[22]
*515 wbs_dat_i[23]
*516 wbs_dat_i[24]
*517 wbs_dat_i[25]
*518 wbs_dat_i[26]
*519 wbs_dat_i[27]
*520 wbs_dat_i[28]
*521 wbs_dat_i[29]
*522 wbs_dat_i[2]
*523 wbs_dat_i[30]
*524 wbs_dat_i[31]
*525 wbs_dat_i[3]
*526 wbs_dat_i[4]
*527 wbs_dat_i[5]
*528 wbs_dat_i[6]
*529 wbs_dat_i[7]
*530 wbs_dat_i[8]
*531 wbs_dat_i[9]
*532 wbs_sel_i[0]
*533 wbs_sel_i[1]
*534 wbs_sel_i[2]
*535 wbs_sel_i[3]
*536 wbs_we_i
*537 mprj

*PORTS
analog_io[0] I
analog_io[10] I
analog_io[11] I
analog_io[12] I
analog_io[13] I
analog_io[14] I
analog_io[15] I
analog_io[16] I
analog_io[17] I
analog_io[18] I
analog_io[19] I
analog_io[1] I
analog_io[20] I
analog_io[21] I
analog_io[22] I
analog_io[23] I
analog_io[24] I
analog_io[25] I
analog_io[26] I
analog_io[27] I
analog_io[28] I
analog_io[2] I
analog_io[3] I
analog_io[4] I
analog_io[5] I
analog_io[6] I
analog_io[7] I
analog_io[8] I
analog_io[9] I
io_in[0] I
io_in[10] I
io_in[11] I
io_in[12] I
io_in[13] I
io_in[14] I
io_in[15] I
io_in[16] I
io_in[17] I
io_in[18] I
io_in[19] I
io_in[1] I
io_in[20] I
io_in[21] I
io_in[22] I
io_in[23] I
io_in[24] I
io_in[25] I
io_in[26] I
io_in[27] I
io_in[28] I
io_in[29] I
io_in[2] I
io_in[30] I
io_in[31] I
io_in[32] I
io_in[33] I
io_in[34] I
io_in[35] I
io_in[36] I
io_in[37] I
io_in[3] I
io_in[4] I
io_in[5] I
io_in[6] I
io_in[7] I
io_in[8] I
io_in[9] I
io_oeb[0] O
io_oeb[10] O
io_oeb[11] O
io_oeb[12] O
io_oeb[13] O
io_oeb[14] O
io_oeb[15] O
io_oeb[16] O
io_oeb[17] O
io_oeb[18] O
io_oeb[19] O
io_oeb[1] O
io_oeb[20] O
io_oeb[21] O
io_oeb[22] O
io_oeb[23] O
io_oeb[24] O
io_oeb[25] O
io_oeb[26] O
io_oeb[27] O
io_oeb[28] O
io_oeb[29] O
io_oeb[2] O
io_oeb[30] O
io_oeb[31] O
io_oeb[32] O
io_oeb[33] O
io_oeb[34] O
io_oeb[35] O
io_oeb[36] O
io_oeb[37] O
io_oeb[3] O
io_oeb[4] O
io_oeb[5] O
io_oeb[6] O
io_oeb[7] O
io_oeb[8] O
io_oeb[9] O
io_out[0] O
io_out[10] O
io_out[11] O
io_out[12] O
io_out[13] O
io_out[14] O
io_out[15] O
io_out[16] O
io_out[17] O
io_out[18] O
io_out[19] O
io_out[1] O
io_out[20] O
io_out[21] O
io_out[22] O
io_out[23] O
io_out[24] O
io_out[25] O
io_out[26] O
io_out[27] O
io_out[28] O
io_out[29] O
io_out[2] O
io_out[30] O
io_out[31] O
io_out[32] O
io_out[33] O
io_out[34] O
io_out[35] O
io_out[36] O
io_out[37] O
io_out[3] O
io_out[4] O
io_out[5] O
io_out[6] O
io_out[7] O
io_out[8] O
io_out[9] O
la_data_in[0] I
la_data_in[100] I
la_data_in[101] I
la_data_in[102] I
la_data_in[103] I
la_data_in[104] I
la_data_in[105] I
la_data_in[106] I
la_data_in[107] I
la_data_in[108] I
la_data_in[109] I
la_data_in[10] I
la_data_in[110] I
la_data_in[111] I
la_data_in[112] I
la_data_in[113] I
la_data_in[114] I
la_data_in[115] I
la_data_in[116] I
la_data_in[117] I
la_data_in[118] I
la_data_in[119] I
la_data_in[11] I
la_data_in[120] I
la_data_in[121] I
la_data_in[122] I
la_data_in[123] I
la_data_in[124] I
la_data_in[125] I
la_data_in[126] I
la_data_in[127] I
la_data_in[12] I
la_data_in[13] I
la_data_in[14] I
la_data_in[15] I
la_data_in[16] I
la_data_in[17] I
la_data_in[18] I
la_data_in[19] I
la_data_in[1] I
la_data_in[20] I
la_data_in[21] I
la_data_in[22] I
la_data_in[23] I
la_data_in[24] I
la_data_in[25] I
la_data_in[26] I
la_data_in[27] I
la_data_in[28] I
la_data_in[29] I
la_data_in[2] I
la_data_in[30] I
la_data_in[31] I
la_data_in[32] I
la_data_in[33] I
la_data_in[34] I
la_data_in[35] I
la_data_in[36] I
la_data_in[37] I
la_data_in[38] I
la_data_in[39] I
la_data_in[3] I
la_data_in[40] I
la_data_in[41] I
la_data_in[42] I
la_data_in[43] I
la_data_in[44] I
la_data_in[45] I
la_data_in[46] I
la_data_in[47] I
la_data_in[48] I
la_data_in[49] I
la_data_in[4] I
la_data_in[50] I
la_data_in[51] I
la_data_in[52] I
la_data_in[53] I
la_data_in[54] I
la_data_in[55] I
la_data_in[56] I
la_data_in[57] I
la_data_in[58] I
la_data_in[59] I
la_data_in[5] I
la_data_in[60] I
la_data_in[61] I
la_data_in[62] I
la_data_in[63] I
la_data_in[64] I
la_data_in[65] I
la_data_in[66] I
la_data_in[67] I
la_data_in[68] I
la_data_in[69] I
la_data_in[6] I
la_data_in[70] I
la_data_in[71] I
la_data_in[72] I
la_data_in[73] I
la_data_in[74] I
la_data_in[75] I
la_data_in[76] I
la_data_in[77] I
la_data_in[78] I
la_data_in[79] I
la_data_in[7] I
la_data_in[80] I
la_data_in[81] I
la_data_in[82] I
la_data_in[83] I
la_data_in[84] I
la_data_in[85] I
la_data_in[86] I
la_data_in[87] I
la_data_in[88] I
la_data_in[89] I
la_data_in[8] I
la_data_in[90] I
la_data_in[91] I
la_data_in[92] I
la_data_in[93] I
la_data_in[94] I
la_data_in[95] I
la_data_in[96] I
la_data_in[97] I
la_data_in[98] I
la_data_in[99] I
la_data_in[9] I
la_data_out[0] O
la_data_out[100] O
la_data_out[101] O
la_data_out[102] O
la_data_out[103] O
la_data_out[104] O
la_data_out[105] O
la_data_out[106] O
la_data_out[107] O
la_data_out[108] O
la_data_out[109] O
la_data_out[10] O
la_data_out[110] O
la_data_out[111] O
la_data_out[112] O
la_data_out[113] O
la_data_out[114] O
la_data_out[115] O
la_data_out[116] O
la_data_out[117] O
la_data_out[118] O
la_data_out[119] O
la_data_out[11] O
la_data_out[120] O
la_data_out[121] O
la_data_out[122] O
la_data_out[123] O
la_data_out[124] O
la_data_out[125] O
la_data_out[126] O
la_data_out[127] O
la_data_out[12] O
la_data_out[13] O
la_data_out[14] O
la_data_out[15] O
la_data_out[16] O
la_data_out[17] O
la_data_out[18] O
la_data_out[19] O
la_data_out[1] O
la_data_out[20] O
la_data_out[21] O
la_data_out[22] O
la_data_out[23] O
la_data_out[24] O
la_data_out[25] O
la_data_out[26] O
la_data_out[27] O
la_data_out[28] O
la_data_out[29] O
la_data_out[2] O
la_data_out[30] O
la_data_out[31] O
la_data_out[32] O
la_data_out[33] O
la_data_out[34] O
la_data_out[35] O
la_data_out[36] O
la_data_out[37] O
la_data_out[38] O
la_data_out[39] O
la_data_out[3] O
la_data_out[40] O
la_data_out[41] O
la_data_out[42] O
la_data_out[43] O
la_data_out[44] O
la_data_out[45] O
la_data_out[46] O
la_data_out[47] O
la_data_out[48] O
la_data_out[49] O
la_data_out[4] O
la_data_out[50] O
la_data_out[51] O
la_data_out[52] O
la_data_out[53] O
la_data_out[54] O
la_data_out[55] O
la_data_out[56] O
la_data_out[57] O
la_data_out[58] O
la_data_out[59] O
la_data_out[5] O
la_data_out[60] O
la_data_out[61] O
la_data_out[62] O
la_data_out[63] O
la_data_out[64] O
la_data_out[65] O
la_data_out[66] O
la_data_out[67] O
la_data_out[68] O
la_data_out[69] O
la_data_out[6] O
la_data_out[70] O
la_data_out[71] O
la_data_out[72] O
la_data_out[73] O
la_data_out[74] O
la_data_out[75] O
la_data_out[76] O
la_data_out[77] O
la_data_out[78] O
la_data_out[79] O
la_data_out[7] O
la_data_out[80] O
la_data_out[81] O
la_data_out[82] O
la_data_out[83] O
la_data_out[84] O
la_data_out[85] O
la_data_out[86] O
la_data_out[87] O
la_data_out[88] O
la_data_out[89] O
la_data_out[8] O
la_data_out[90] O
la_data_out[91] O
la_data_out[92] O
la_data_out[93] O
la_data_out[94] O
la_data_out[95] O
la_data_out[96] O
la_data_out[97] O
la_data_out[98] O
la_data_out[99] O
la_data_out[9] O
la_oenb[0] I
la_oenb[100] I
la_oenb[101] I
la_oenb[102] I
la_oenb[103] I
la_oenb[104] I
la_oenb[105] I
la_oenb[106] I
la_oenb[107] I
la_oenb[108] I
la_oenb[109] I
la_oenb[10] I
la_oenb[110] I
la_oenb[111] I
la_oenb[112] I
la_oenb[113] I
la_oenb[114] I
la_oenb[115] I
la_oenb[116] I
la_oenb[117] I
la_oenb[118] I
la_oenb[119] I
la_oenb[11] I
la_oenb[120] I
la_oenb[121] I
la_oenb[122] I
la_oenb[123] I
la_oenb[124] I
la_oenb[125] I
la_oenb[126] I
la_oenb[127] I
la_oenb[12] I
la_oenb[13] I
la_oenb[14] I
la_oenb[15] I
la_oenb[16] I
la_oenb[17] I
la_oenb[18] I
la_oenb[19] I
la_oenb[1] I
la_oenb[20] I
la_oenb[21] I
la_oenb[22] I
la_oenb[23] I
la_oenb[24] I
la_oenb[25] I
la_oenb[26] I
la_oenb[27] I
la_oenb[28] I
la_oenb[29] I
la_oenb[2] I
la_oenb[30] I
la_oenb[31] I
la_oenb[32] I
la_oenb[33] I
la_oenb[34] I
la_oenb[35] I
la_oenb[36] I
la_oenb[37] I
la_oenb[38] I
la_oenb[39] I
la_oenb[3] I
la_oenb[40] I
la_oenb[41] I
la_oenb[42] I
la_oenb[43] I
la_oenb[44] I
la_oenb[45] I
la_oenb[46] I
la_oenb[47] I
la_oenb[48] I
la_oenb[49] I
la_oenb[4] I
la_oenb[50] I
la_oenb[51] I
la_oenb[52] I
la_oenb[53] I
la_oenb[54] I
la_oenb[55] I
la_oenb[56] I
la_oenb[57] I
la_oenb[58] I
la_oenb[59] I
la_oenb[5] I
la_oenb[60] I
la_oenb[61] I
la_oenb[62] I
la_oenb[63] I
la_oenb[64] I
la_oenb[65] I
la_oenb[66] I
la_oenb[67] I
la_oenb[68] I
la_oenb[69] I
la_oenb[6] I
la_oenb[70] I
la_oenb[71] I
la_oenb[72] I
la_oenb[73] I
la_oenb[74] I
la_oenb[75] I
la_oenb[76] I
la_oenb[77] I
la_oenb[78] I
la_oenb[79] I
la_oenb[7] I
la_oenb[80] I
la_oenb[81] I
la_oenb[82] I
la_oenb[83] I
la_oenb[84] I
la_oenb[85] I
la_oenb[86] I
la_oenb[87] I
la_oenb[88] I
la_oenb[89] I
la_oenb[8] I
la_oenb[90] I
la_oenb[91] I
la_oenb[92] I
la_oenb[93] I
la_oenb[94] I
la_oenb[95] I
la_oenb[96] I
la_oenb[97] I
la_oenb[98] I
la_oenb[99] I
la_oenb[9] I
user_clock2 I
user_irq[0] O
user_irq[1] O
user_irq[2] O
wb_clk_i I
wb_rst_i I
wbs_ack_o O
wbs_adr_i[0] I
wbs_adr_i[10] I
wbs_adr_i[11] I
wbs_adr_i[12] I
wbs_adr_i[13] I
wbs_adr_i[14] I
wbs_adr_i[15] I
wbs_adr_i[16] I
wbs_adr_i[17] I
wbs_adr_i[18] I
wbs_adr_i[19] I
wbs_adr_i[1] I
wbs_adr_i[20] I
wbs_adr_i[21] I
wbs_adr_i[22] I
wbs_adr_i[23] I
wbs_adr_i[24] I
wbs_adr_i[25] I
wbs_adr_i[26] I
wbs_adr_i[27] I
wbs_adr_i[28] I
wbs_adr_i[29] I
wbs_adr_i[2] I
wbs_adr_i[30] I
wbs_adr_i[31] I
wbs_adr_i[3] I
wbs_adr_i[4] I
wbs_adr_i[5] I
wbs_adr_i[6] I
wbs_adr_i[7] I
wbs_adr_i[8] I
wbs_adr_i[9] I
wbs_cyc_i I
wbs_dat_i[0] I
wbs_dat_i[10] I
wbs_dat_i[11] I
wbs_dat_i[12] I
wbs_dat_i[13] I
wbs_dat_i[14] I
wbs_dat_i[15] I
wbs_dat_i[16] I
wbs_dat_i[17] I
wbs_dat_i[18] I
wbs_dat_i[19] I
wbs_dat_i[1] I
wbs_dat_i[20] I
wbs_dat_i[21] I
wbs_dat_i[22] I
wbs_dat_i[23] I
wbs_dat_i[24] I
wbs_dat_i[25] I
wbs_dat_i[26] I
wbs_dat_i[27] I
wbs_dat_i[28] I
wbs_dat_i[29] I
wbs_dat_i[2] I
wbs_dat_i[30] I
wbs_dat_i[31] I
wbs_dat_i[3] I
wbs_dat_i[4] I
wbs_dat_i[5] I
wbs_dat_i[6] I
wbs_dat_i[7] I
wbs_dat_i[8] I
wbs_dat_i[9] I
wbs_dat_o[0] O
wbs_dat_o[10] O
wbs_dat_o[11] O
wbs_dat_o[12] O
wbs_dat_o[13] O
wbs_dat_o[14] O
wbs_dat_o[15] O
wbs_dat_o[16] O
wbs_dat_o[17] O
wbs_dat_o[18] O
wbs_dat_o[19] O
wbs_dat_o[1] O
wbs_dat_o[20] O
wbs_dat_o[21] O
wbs_dat_o[22] O
wbs_dat_o[23] O
wbs_dat_o[24] O
wbs_dat_o[25] O
wbs_dat_o[26] O
wbs_dat_o[27] O
wbs_dat_o[28] O
wbs_dat_o[29] O
wbs_dat_o[2] O
wbs_dat_o[30] O
wbs_dat_o[31] O
wbs_dat_o[3] O
wbs_dat_o[4] O
wbs_dat_o[5] O
wbs_dat_o[6] O
wbs_dat_o[7] O
wbs_dat_o[8] O
wbs_dat_o[9] O
wbs_sel_i[0] I
wbs_sel_i[1] I
wbs_sel_i[2] I
wbs_sel_i[3] I
wbs_stb_i I
wbs_we_i I

*D_NET *30 0.401568
*CONN
*P io_in[0] I
*I *537:rf_adc_i_in[0] I *D phase_099_top_integration
*CAP
1 io_in[0] 0.000916151
2 *537:rf_adc_i_in[0] 0.000517697
3 *30:21 0.00858829
4 *30:19 0.00807059
5 *30:17 0.0962347
6 *30:15 0.0962347
7 *30:13 0.0352902
8 *30:11 0.0362064
9 *537:rf_adc_i_in[0] *537:rf_adc_i_in[4] 0
10 *537:rf_adc_i_in[0] *308:9 0
11 *30:17 la_data_out[82] 0
12 *30:21 *537:rf_adc_i_in[6] 0.000212546
13 *30:21 *41:21 0.00834142
14 *30:21 *63:21 0.000972352
15 *30:21 *126:11 0.00429606
16 *30:21 *277:11 0.016847
17 *30:21 *307:11 0.0179002
18 *30:21 *322:11 0.00990652
19 *30:21 *330:13 0.00517031
20 *30:21 *363:19 0.0558624
*RES
1 io_in[0] *30:11 7.9821 
2 *30:11 *30:13 607.995 
3 *30:13 *30:15 2 
4 *30:15 *30:17 1748.13 
5 *30:17 *30:19 2 
6 *30:19 *30:21 531.405 
7 *30:21 *537:rf_adc_i_in[0] 9.6875 
*END

*D_NET *31 0.180744
*CONN
*P io_in[10] I
*I *537:rf_adc_i_in[10] I *D phase_099_top_integration
*CAP
1 io_in[10] 0.0442633
2 *537:rf_adc_i_in[10] 0.000748156
3 *31:13 0.0142902
4 *31:11 0.0135421
5 *31:9 0.00233695
6 *31:7 0.00233695
7 *31:5 0.0442633
8 *537:rf_adc_i_in[10] *537:rf_adc_i_in[5] 0.000101651
9 *31:9 *61:19 0.000207432
10 *31:9 *295:29 0
11 *31:9 *295:31 0.000890142
12 *31:9 *317:31 0.00404555
13 *31:9 *320:15 2.53191e-06
14 *31:9 *331:15 0
15 *31:9 *363:25 0.000562337
16 *31:13 *537:rf_adc_i_in[5] 2.33678e-05
17 *31:13 *537:rf_adc_i_in[6] 0.00396503
18 *31:13 *61:21 0.00314959
19 *31:13 *132:13 0.00177254
20 *31:13 *136:11 0
21 *31:13 *295:17 0.00998072
22 *31:13 *316:11 0.00147179
23 *31:13 *320:13 0.00359963
24 *31:13 *323:13 0.0188953
25 *31:13 *329:11 0.00160572
26 *31:13 *330:13 0.00143514
27 *31:13 *332:13 0.000153102
28 *31:13 *334:13 0.00707219
29 *31:13 *341:13 2.91013e-05
*RES
1 io_in[10] *31:5 108.541 
2 *31:5 *31:7 0.5 
3 *31:7 *31:9 60.795 
4 *31:9 *31:11 0.5 
5 *31:11 *31:13 66.2289 
6 *31:13 *537:rf_adc_i_in[10] 11.495 
*END

*D_NET *32 0.156647
*CONN
*P io_in[11] I
*I *537:rf_adc_i_in[11] I *D phase_099_top_integration
*CAP
1 io_in[11] 0.0699958
2 *537:rf_adc_i_in[11] 1.22321e-05
3 *32:9 0.00830602
4 *32:7 0.00829379
5 *32:5 0.0699958
6 *32:9 *33:9 0
7 *32:9 *309:9 4.36329e-05
*RES
1 io_in[11] *32:5 172.925 
2 *32:5 *32:7 0.5 
3 *32:7 *32:9 148.005 
4 *32:9 *537:rf_adc_i_in[11] 0.225 
*END

*D_NET *33 0.169414
*CONN
*P io_in[12] I
*I *537:rf_adc_i_in[12] I *D phase_099_top_integration
*CAP
1 io_in[12] 0.0654506
2 *537:rf_adc_i_in[12] 1.22321e-05
3 *33:9 0.0192566
4 *33:7 0.0192443
5 *33:5 0.0654506
6 *33:9 *34:9 0
7 *32:9 *33:9 0
*RES
1 io_in[12] *33:5 172.517 
2 *33:5 *33:7 0.5 
3 *33:7 *33:9 346.905 
4 *33:9 *537:rf_adc_i_in[12] 0.225 
*END

*D_NET *34 0.1911
*CONN
*P io_in[13] I
*I *537:rf_adc_i_in[13] I *D phase_099_top_integration
*CAP
1 io_in[13] 0.0652717
2 *537:rf_adc_i_in[13] 1.22321e-05
3 *34:9 0.0300644
4 *34:7 0.0300522
5 *34:5 0.0652717
6 *34:9 *132:11 0.000427928
7 *33:9 *34:9 0
*RES
1 io_in[13] *34:5 172.11 
2 *34:5 *34:7 0.5 
3 *34:7 *34:9 546.315 
4 *34:9 *537:rf_adc_i_in[13] 0.225 
*END

*D_NET *35 0.212011
*CONN
*P io_in[14] I
*I *537:rf_adc_i_in[14] I *D phase_099_top_integration
*CAP
1 io_in[14] 0.0638581
2 *537:rf_adc_i_in[14] 1.22321e-05
3 *35:9 0.041164
4 *35:7 0.0411517
5 *35:5 0.0638581
6 *35:5 io_out[24] 0.00196651
7 *35:9 *36:13 0
*RES
1 io_in[14] *35:5 170.886 
2 *35:5 *35:7 0.5 
3 *35:7 *35:9 745.725 
4 *35:9 *537:rf_adc_i_in[14] 0.225 
*END

*D_NET *36 0.281082
*CONN
*P io_in[15] I
*I *537:rf_adc_i_in[15] I *D phase_099_top_integration
*CAP
1 io_in[15] 0.00065289
2 *537:rf_adc_i_in[15] 1.22321e-05
3 *36:13 0.0473151
4 *36:11 0.0473028
5 *36:9 0.0302708
6 *36:7 0.0309237
7 *36:9 io_oeb[17] 0.00591751
8 *36:9 *37:9 0.077709
9 *36:9 *77:25 0.00835948
10 *36:9 *113:11 0.0326189
11 *35:9 *36:13 0
*RES
1 io_in[15] *36:7 12.2825 
2 *36:7 *36:9 156.193 
3 *36:9 *36:11 0.5 
4 *36:11 *36:13 857.415 
5 *36:13 *537:rf_adc_i_in[15] 0.225 
*END

*D_NET *37 0.574739
*CONN
*P io_in[16] I
*I *537:rf_adc_q_in[0] I *D phase_099_top_integration
*CAP
1 io_in[16] 0.000687458
2 *537:rf_adc_q_in[0] 0.000111155
3 *37:13 0.0746232
4 *37:11 0.074512
5 *37:9 0.0488607
6 *37:7 0.0495482
7 *537:rf_adc_q_in[0] *537:rf_adc_q_in[13] 7.89282e-05
8 *537:rf_adc_q_in[0] *277:27 0
9 *537:rf_adc_q_in[0] *281:35 7.01981e-05
10 *537:rf_adc_q_in[0] *286:37 2.35067e-05
11 *37:9 io_out[17] 0.000209338
12 *37:9 io_out[18] 0.000210849
13 *37:9 *39:9 0.035018
14 *37:9 *40:9 0.0540497
15 *37:9 *77:25 0.0031924
16 *37:9 *78:29 4.73375e-06
17 *37:13 *51:9 0.0164588
18 *37:13 *53:9 0.0110937
19 *37:13 *77:21 0.0961285
20 *37:13 *126:17 0.000708904
21 *37:13 *277:15 0.0183962
22 *37:13 *286:15 0.0119633
23 *37:13 *286:19 0.0010802
24 *36:9 *37:9 0.077709
*RES
1 io_in[16] *37:7 12.7925 
2 *37:7 *37:9 203.709 
3 *37:9 *37:11 0.5 
4 *37:11 *37:13 296.164 
5 *37:13 *537:rf_adc_q_in[0] 2.44367 
*END

*D_NET *38 0.360978
*CONN
*P io_in[17] I
*I *537:rf_adc_q_in[1] I *D phase_099_top_integration
*CAP
1 io_in[17] 0.0973178
2 *537:rf_adc_q_in[1] 7.07417e-05
3 *38:9 0.0405205
4 *38:7 0.0404498
5 *38:5 0.0973178
6 *537:rf_adc_q_in[1] *537:rf_adc_q_in[15] 0
7 *38:9 *537:rf_adc_q_in[5] 0.0011116
8 *38:9 *537:rf_adc_q_in[9] 0.00061797
9 *38:9 *76:9 0.0144746
10 *38:9 *77:19 3.99991e-05
11 *38:9 *78:23 7.86939e-05
12 *38:9 *80:25 4.00045e-05
13 *38:9 *277:27 0.000995131
14 *38:9 *279:35 7.86938e-05
15 *38:9 *281:35 1.91769e-05
16 *38:9 *286:37 0.0132673
17 *38:9 *307:19 0.0371074
18 *38:9 *307:29 0.00994815
19 *38:9 *308:37 0.0012731
20 *38:9 *312:27 0.00368471
21 *38:9 *315:33 0.00247903
22 *38:9 *316:29 1.91843e-05
23 *38:9 *320:37 1.91843e-05
24 *38:9 *334:29 1.91769e-05
25 *38:9 *341:29 2.79351e-05
*RES
1 io_in[17] *38:5 1769.24 
2 *38:5 *38:7 0.5 
3 *38:7 *38:9 160.067 
4 *38:9 *537:rf_adc_q_in[1] 1.5725 
*END

*D_NET *39 0.521968
*CONN
*P io_in[18] I
*I *537:rf_adc_q_in[2] I *D phase_099_top_integration
*CAP
1 io_in[18] 0.000705553
2 *537:rf_adc_q_in[2] 0.000355395
3 *39:13 0.0243403
4 *39:11 0.0239849
5 *39:9 0.0416053
6 *39:7 0.0423108
7 *537:rf_adc_q_in[2] *537:rf_adc_q_in[13] 0.000701708
8 *537:rf_adc_q_in[2] *77:19 0.0018178
9 *537:rf_adc_q_in[2] *80:25 0.000655225
10 *39:13 *42:13 0.15738
11 *39:13 *77:21 0.0357674
12 *39:13 *78:25 0.157254
13 *39:13 *279:15 7.1163e-05
14 *37:9 *39:9 0.035018
*RES
1 io_in[18] *39:7 14.42 
2 *39:7 *39:9 717.705 
3 *39:9 *39:11 2 
4 *39:11 *39:13 1753.36 
5 *39:13 *537:rf_adc_q_in[2] 3.68913 
*END

*D_NET *40 0.446617
*CONN
*P io_in[19] I
*I *537:rf_adc_q_in[3] I *D phase_099_top_integration
*CAP
1 io_in[19] 0.000659366
2 *537:rf_adc_q_in[3] 0.000936821
3 *40:13 0.0615176
4 *40:11 0.0605808
5 *40:9 0.00793829
6 *40:7 0.00859766
7 *537:rf_adc_q_in[3] *537:rf_adc_q_in[4] 0
8 *537:rf_adc_q_in[3] *44:11 0.000717805
9 *537:rf_adc_q_in[3] *290:21 0.00189987
10 *40:9 *77:25 0.0540497
11 *40:13 *537:rf_adc_q_in[11] 0.000285974
12 *40:13 *42:13 0.158167
13 *40:13 *77:21 0.037217
14 *37:9 *40:9 0.0540497
*RES
1 io_in[19] *40:7 12.2825 
2 *40:7 *40:9 80.0381 
3 *40:9 *40:11 0.5 
4 *40:11 *40:13 1762.67 
5 *40:13 *537:rf_adc_q_in[3] 10.8981 
*END

*D_NET *41 0.38492
*CONN
*P io_in[1] I
*I *537:rf_adc_i_in[1] I *D phase_099_top_integration
*CAP
1 io_in[1] 0.00100923
2 *537:rf_adc_i_in[1] 0.000556354
3 *41:21 0.00885246
4 *41:19 0.00829611
5 *41:17 0.0880538
6 *41:15 0.0880538
7 *41:13 0.0336601
8 *41:11 0.0346694
9 *537:rf_adc_i_in[1] *537:rf_adc_i_in[3] 0
10 *537:rf_adc_i_in[1] *296:7 1.75155e-05
11 *41:21 *52:21 0.0604968
12 *41:21 *126:11 0.00327017
13 *41:21 *136:11 0.000742415
14 *41:21 *277:11 0.0175616
15 *41:21 *307:11 0.0179002
16 *41:21 *322:11 0.00990652
17 *41:21 *330:13 0.00353213
18 *30:21 *41:21 0.00834142
*RES
1 io_in[1] *41:11 6.91823 
2 *41:11 *41:13 594.885 
3 *41:13 *41:15 2 
4 *41:15 *41:17 1600.23 
5 *41:17 *41:19 2 
6 *41:19 *41:21 548.31 
7 *41:21 *537:rf_adc_i_in[1] 9.8675 
*END

*D_NET *42 0.463252
*CONN
*P io_in[20] I
*I *537:rf_adc_q_in[4] I *D phase_099_top_integration
*CAP
1 io_in[20] 0.00740019
2 *537:rf_adc_q_in[4] 0.000945372
3 *42:13 0.0254308
4 *42:11 0.0244855
5 *42:9 0.00740019
6 *537:rf_adc_q_in[4] *537:rf_adc_q_in[15] 0.00117094
7 *537:rf_adc_q_in[4] *277:29 1.97029e-06
8 *537:rf_adc_q_in[4] *289:21 0.000343566
9 *537:rf_adc_q_in[4] *290:21 0.00216947
10 *42:9 io_oeb[20] 0.0118877
11 *42:9 *78:29 0.0263145
12 *42:13 *537:rf_adc_q_in[10] 0
13 *42:13 *537:rf_adc_q_in[11] 2.85245e-05
14 *42:13 *77:21 0.0399948
15 *42:13 *78:25 7.66985e-05
16 *42:13 *277:15 0
17 *42:13 *279:15 5.52208e-05
18 *537:rf_adc_q_in[3] *537:rf_adc_q_in[4] 0
19 *39:13 *42:13 0.15738
20 *40:13 *42:13 0.158167
*RES
1 io_in[20] *42:9 49.7126 
2 *42:9 *42:11 0.5 
3 *42:11 *42:13 1765.21 
4 *42:13 *537:rf_adc_q_in[4] 12.6709 
*END

*D_NET *43 0.203195
*CONN
*P io_in[21] I
*I *537:rf_adc_q_in[5] I *D phase_099_top_integration
*CAP
1 io_in[21] 0.0972748
2 *537:rf_adc_q_in[5] 0.00103703
3 *43:5 0.0983118
4 *537:rf_adc_q_in[5] *537:rf_adc_q_in[6] 0
5 *537:rf_adc_q_in[5] *537:rf_adc_q_in[9] 0.00400386
6 *537:rf_adc_q_in[5] *277:27 0.000461322
7 *537:rf_adc_q_in[5] *277:29 2.71132e-05
8 *537:rf_adc_q_in[5] *299:51 0.000967263
9 *43:5 *71:5 0
10 *38:9 *537:rf_adc_q_in[5] 0.0011116
*RES
1 io_in[21] *43:5 1769.75 
2 *43:5 *537:rf_adc_q_in[5] 8.9462 
*END

*D_NET *44 0.240424
*CONN
*P io_in[22] I
*I *537:rf_adc_q_in[6] I *D phase_099_top_integration
*CAP
1 io_in[22] 0.0974296
2 *537:rf_adc_q_in[6] 0.000319054
3 *44:11 0.0133012
4 *44:5 0.110412
5 *537:rf_adc_q_in[6] *537:rf_adc_q_in[7] 0
6 *537:rf_adc_q_in[6] *277:29 0
7 *44:11 *537:rf_adc_q_in[10] 0.00240654
8 *44:11 *537:rf_adc_q_in[7] 0.00582967
9 *44:11 *50:13 0.00949152
10 *44:11 *290:21 0.000516203
11 *537:rf_adc_q_in[3] *44:11 0.000717805
12 *537:rf_adc_q_in[5] *537:rf_adc_q_in[6] 0
*RES
1 io_in[22] *44:5 1772.81 
2 *44:5 *44:11 48.4671 
3 *44:11 *537:rf_adc_q_in[6] 5.025 
*END

*D_NET *45 0.284827
*CONN
*P io_in[23] I
*I *537:rf_adc_q_in[7] I *D phase_099_top_integration
*CAP
1 io_in[23] 0.000680981
2 *537:rf_adc_q_in[7] 0.00194325
3 *45:13 0.0918898
4 *45:11 0.0899466
5 *45:9 0.0299738
6 *45:7 0.0306548
7 *537:rf_adc_q_in[7] *537:rf_adc_q_in[8] 0.000141528
8 *537:rf_adc_q_in[7] *50:13 0.00178863
9 *537:rf_adc_q_in[7] *290:21 4.98249e-05
10 *537:rf_adc_q_in[7] *296:29 0.000294978
11 *537:rf_adc_q_in[7] *308:37 0.00132769
12 *45:9 io_oeb[21] 0.000716381
13 *45:13 *54:9 0.0295887
14 *45:13 *70:5 0
15 *537:rf_adc_q_in[6] *537:rf_adc_q_in[7] 0
16 *44:11 *537:rf_adc_q_in[7] 0.00582967
*RES
1 io_in[23] *45:7 12.7925 
2 *45:7 *45:9 79.6885 
3 *45:9 *45:11 0.5 
4 *45:11 *45:13 1760.11 
5 *45:13 *537:rf_adc_q_in[7] 14.8757 
*END

*D_NET *46 0.285477
*CONN
*P io_in[24] I
*I *537:rf_adc_q_in[8] I *D phase_099_top_integration
*CAP
1 io_in[24] 0.0382598
2 *537:rf_adc_q_in[8] 0.00177029
3 *46:9 0.0951189
4 *46:7 0.0933486
5 *46:5 0.0382598
6 *537:rf_adc_q_in[8] *537:rf_adc_q_in[9] 0.00947515
7 *537:rf_adc_q_in[8] *50:13 0.00632829
8 *537:rf_adc_q_in[8] *308:37 0.00277484
9 *537:rf_adc_q_in[7] *537:rf_adc_q_in[8] 0.000141528
*RES
1 io_in[24] *46:5 100.791 
2 *46:5 *46:7 0.5 
3 *46:7 *46:9 1698.41 
4 *46:9 *537:rf_adc_q_in[8] 18.1235 
*END

*D_NET *47 0.262332
*CONN
*P io_in[25] I
*I *537:rf_adc_q_in[9] I *D phase_099_top_integration
*CAP
1 io_in[25] 0.0362551
2 *537:rf_adc_q_in[9] 0.00423256
3 *47:9 0.0867766
4 *47:7 0.0825441
5 *47:5 0.0362551
6 *537:rf_adc_q_in[9] *50:13 0.00203234
7 *537:rf_adc_q_in[9] *308:37 0.000138852
8 *537:rf_adc_q_in[5] *537:rf_adc_q_in[9] 0.00400386
9 *537:rf_adc_q_in[8] *537:rf_adc_q_in[9] 0.00947515
10 *38:9 *537:rf_adc_q_in[9] 0.00061797
*RES
1 io_in[25] *47:5 95.5472 
2 *47:5 *47:7 0.5 
3 *47:7 *47:9 1502.06 
4 *47:9 *537:rf_adc_q_in[9] 23.2654 
*END

*D_NET *48 0.236529
*CONN
*P io_in[26] I
*I *537:rf_adc_q_in[10] I *D phase_099_top_integration
*CAP
1 io_in[26] 0.0355558
2 *537:rf_adc_q_in[10] 0.00583357
3 *48:9 0.0779343
4 *48:7 0.0721008
5 *48:5 0.0355558
6 *537:rf_adc_q_in[10] *537:clk_2p4g 0
7 *537:rf_adc_q_in[10] *537:rf_adc_q_in[11] 0.00352905
8 *537:rf_adc_q_in[10] *537:rf_adc_q_in[15] 0.00274775
9 *537:rf_adc_q_in[10] *277:27 5.34439e-05
10 *537:rf_adc_q_in[10] *290:21 0.000811677
11 *537:rf_adc_q_in[10] *296:17 0
12 *42:13 *537:rf_adc_q_in[10] 0
13 *44:11 *537:rf_adc_q_in[10] 0.00240654
*RES
1 io_in[26] *48:5 87.6812 
2 *48:5 *48:7 0.5 
3 *48:7 *48:9 1311.82 
4 *48:9 *537:rf_adc_q_in[10] 31.2765 
*END

*D_NET *49 0.209534
*CONN
*P io_in[27] I
*I *537:rf_adc_q_in[11] I *D phase_099_top_integration
*CAP
1 io_in[27] 0.0336802
2 *537:rf_adc_q_in[11] 0.00657492
3 *49:9 0.0680616
4 *49:7 0.0614867
5 *49:5 0.0336802
6 *537:rf_adc_q_in[11] *537:clk_2p4g 0.000769866
7 *537:rf_adc_q_in[11] *537:rf_adc_q_in[12] 9.15543e-05
8 *537:rf_adc_q_in[11] *537:rf_adc_q_in[15] 0.00134534
9 *537:rf_adc_q_in[11] *273:13 0
10 *537:rf_adc_q_in[10] *537:rf_adc_q_in[11] 0.00352905
11 *40:13 *537:rf_adc_q_in[11] 0.000285974
12 *42:13 *537:rf_adc_q_in[11] 2.85245e-05
*RES
1 io_in[27] *49:5 88.5552 
2 *49:5 *49:7 0.5 
3 *49:7 *49:9 1118.54 
4 *49:9 *537:rf_adc_q_in[11] 32.0484 
*END

*D_NET *50 0.194398
*CONN
*P io_in[28] I
*I *537:rf_adc_q_in[12] I *D phase_099_top_integration
*CAP
1 io_in[28] 0.00282722
2 *537:rf_adc_q_in[12] 0.000279758
3 *50:13 0.0341228
4 *50:11 0.0338431
5 *50:9 0.050383
6 *50:7 0.0532102
7 *537:rf_adc_q_in[12] *286:37 0
8 *537:rf_adc_q_in[11] *537:rf_adc_q_in[12] 9.15543e-05
9 *537:rf_adc_q_in[7] *50:13 0.00178863
10 *537:rf_adc_q_in[8] *50:13 0.00632829
11 *537:rf_adc_q_in[9] *50:13 0.00203234
12 *44:11 *50:13 0.00949152
*RES
1 io_in[28] *50:7 7.7732 
2 *50:7 *50:9 916.575 
3 *50:9 *50:11 0.5 
4 *50:11 *50:13 102.995 
5 *50:13 *537:rf_adc_q_in[12] 4.925 
*END

*D_NET *51 0.24232
*CONN
*P io_in[29] I
*I *537:rf_adc_q_in[13] I *D phase_099_top_integration
*CAP
1 io_in[29] 0.0419008
2 *537:rf_adc_q_in[13] 0.000239387
3 *51:9 0.0106313
4 *51:7 0.010392
5 *51:5 0.0419008
6 *537:rf_adc_q_in[13] *537:rf_adc_q_in[14] 1.95682e-05
7 *537:rf_adc_q_in[13] *77:19 9.54817e-06
8 *537:rf_adc_q_in[13] *78:23 1.85934e-05
9 *537:rf_adc_q_in[13] *80:25 9.81702e-05
10 *537:rf_adc_q_in[13] *281:35 5.44786e-05
11 *537:rf_adc_q_in[13] *286:37 0.000798435
12 *51:9 *53:9 0.0466544
13 *51:9 *277:15 0.0645105
14 *51:9 *281:15 0
15 *51:9 *286:15 0.00780177
16 *51:9 *286:19 5.04731e-05
17 *537:rf_adc_q_in[0] *537:rf_adc_q_in[13] 7.89282e-05
18 *537:rf_adc_q_in[2] *537:rf_adc_q_in[13] 0.000701708
19 *37:13 *51:9 0.0164588
*RES
1 io_in[29] *51:5 109.473 
2 *51:5 *51:7 0.5 
3 *51:7 *51:9 715.125 
4 *51:9 *537:rf_adc_q_in[13] 2.96977 
*END

*D_NET *52 0.357628
*CONN
*P io_in[2] I
*I *537:rf_adc_i_in[2] I *D phase_099_top_integration
*CAP
1 io_in[2] 0.00105082
2 *537:rf_adc_i_in[2] 0.00056597
3 *52:21 0.012529
4 *52:19 0.011963
5 *52:17 0.0797867
6 *52:15 0.0797867
7 *52:13 0.0333723
8 *52:11 0.0344232
9 *537:rf_adc_i_in[2] *537:rf_adc_i_in[3] 0
10 *537:rf_adc_i_in[2] *344:17 0
11 *52:21 *126:11 0.00428682
12 *52:21 *136:11 0.000742415
13 *52:21 *272:11 0.000123028
14 *52:21 *277:11 0.000295519
15 *52:21 *281:11 0.0214244
16 *52:21 *298:11 0.00655334
17 *52:21 *330:13 0.00752276
18 *52:21 *357:11 0.00270494
19 *41:21 *52:21 0.0604968
*RES
1 io_in[2] *52:11 7.68323 
2 *52:11 *52:13 589.71 
3 *52:13 *52:15 2 
4 *52:15 *52:17 1449.78 
5 *52:17 *52:19 2 
6 *52:19 *52:21 557.97 
7 *52:21 *537:rf_adc_i_in[2] 9.9575 
*END

*D_NET *53 0.189335
*CONN
*P io_in[30] I
*I *537:rf_adc_q_in[14] I *D phase_099_top_integration
*CAP
1 io_in[30] 0.0418805
2 *537:rf_adc_q_in[14] 0.00067328
3 *53:9 0.00872779
4 *53:7 0.00805451
5 *53:5 0.0418805
6 *537:rf_adc_q_in[14] *78:23 0.000789104
7 *537:rf_adc_q_in[14] *131:13 0.000160955
8 *537:rf_adc_q_in[14] *286:37 0.00012026
9 *53:9 *286:15 0.0242045
10 *53:9 *286:19 0.00507545
11 *537:rf_adc_q_in[13] *537:rf_adc_q_in[14] 1.95682e-05
12 *37:13 *53:9 0.0110937
13 *51:9 *53:9 0.0466544
*RES
1 io_in[30] *53:5 109.415 
2 *53:5 *53:7 0.5 
3 *53:7 *53:9 517.755 
4 *53:9 *537:rf_adc_q_in[14] 6.75293 
*END

*D_NET *54 0.141994
*CONN
*P io_in[31] I
*I *537:rf_adc_q_in[15] I *D phase_099_top_integration
*CAP
1 io_in[31] 0.0401335
2 *537:rf_adc_q_in[15] 0.00154669
3 *54:9 0.013147
4 *54:7 0.0116003
5 *54:5 0.0401335
6 *537:rf_adc_q_in[15] *537:clk_2p4g 0.000116916
7 *537:rf_adc_q_in[15] *289:21 0.000306441
8 *537:rf_adc_q_in[15] *290:21 0.000156891
9 *54:9 *70:5 0
10 *537:rf_adc_q_in[10] *537:rf_adc_q_in[15] 0.00274775
11 *537:rf_adc_q_in[11] *537:rf_adc_q_in[15] 0.00134534
12 *537:rf_adc_q_in[1] *537:rf_adc_q_in[15] 0
13 *537:rf_adc_q_in[4] *537:rf_adc_q_in[15] 0.00117094
14 *45:13 *54:9 0.0295887
*RES
1 io_in[31] *54:5 105.219 
2 *54:5 *54:7 0.5 
3 *54:7 *54:9 334.665 
4 *54:9 *537:rf_adc_q_in[15] 15.5323 
*END

*D_NET *61 0.4149
*CONN
*P io_in[3] I
*I *537:rf_adc_i_in[3] I *D phase_099_top_integration
*CAP
1 io_in[3] 0.0440702
2 *537:rf_adc_i_in[3] 0.00215923
3 *61:21 0.0111401
4 *61:19 0.00918594
5 *61:9 0.0769027
6 *61:7 0.0766977
7 *61:5 0.0440702
8 *537:rf_adc_i_in[3] *126:11 0.00441597
9 *537:rf_adc_i_in[3] *272:11 0.0083128
10 *537:rf_adc_i_in[3] *281:11 0.00152946
11 *537:rf_adc_i_in[3] *291:9 0
12 *537:rf_adc_i_in[3] *322:25 0.000252118
13 *537:rf_adc_i_in[3] *363:17 0.000652825
14 *61:9 *295:31 0.0212713
15 *61:9 *298:23 0.0391088
16 *61:9 *320:15 0.00658132
17 *61:19 *64:13 0
18 *61:19 *320:15 3.29689e-05
19 *61:19 *341:13 5.88886e-05
20 *61:19 *363:25 0.000143714
21 *61:21 *62:21 0.0108883
22 *61:21 *63:21 0.012025
23 *61:21 *292:11 0.0133162
24 *61:21 *295:19 0.000440915
25 *61:21 *315:11 0.00581918
26 *61:21 *329:11 0.0170132
27 *61:21 *330:13 0.00230568
28 *61:21 *332:13 0.00123537
29 *61:21 *363:19 0.00191295
30 *537:rf_adc_i_in[1] *537:rf_adc_i_in[3] 0
31 *537:rf_adc_i_in[2] *537:rf_adc_i_in[3] 0
32 *31:9 *61:19 0.000207432
33 *31:13 *61:21 0.00314959
*RES
1 io_in[3] *61:5 108.395 
2 *61:5 *61:7 0.5 
3 *61:7 *61:9 220.023 
4 *61:9 *61:19 5.76943 
5 *61:19 *61:21 443.085 
6 *61:21 *537:rf_adc_i_in[3] 24.1448 
*END

*D_NET *62 0.366681
*CONN
*P io_in[4] I
*I *537:rf_adc_i_in[4] I *D phase_099_top_integration
*CAP
1 io_in[4] 0.000863411
2 *537:rf_adc_i_in[4] 0.00318572
3 *62:21 0.00462773
4 *62:19 0.00168312
5 *62:13 0.0510901
6 *62:11 0.050849
7 *62:9 0.0456379
8 *62:7 0.0465013
9 *537:rf_adc_i_in[4] *537:rf_adc_i_in[5] 0.00945527
10 *537:rf_adc_i_in[4] *537:rf_adc_i_in[6] 0.0041831
11 *537:rf_adc_i_in[4] *126:11 0.00248963
12 *537:rf_adc_i_in[4] *132:13 0.00084867
13 *537:rf_adc_i_in[4] *289:11 0.00202639
14 *537:rf_adc_i_in[4] *363:17 0
15 *62:9 *63:11 0.000428835
16 *62:9 *64:9 0.0761343
17 *62:13 *64:13 0.0351189
18 *62:13 *344:11 0.00425214
19 *62:13 *352:21 0.00389384
20 *62:13 *362:9 0
21 *62:19 *113:7 0.000163998
22 *62:19 *322:17 0.000114492
23 *62:21 *537:rf_adc_i_in[6] 0.00179981
24 *62:21 *63:21 0.00978573
25 *62:21 *363:19 0.000659207
26 *537:rf_adc_i_in[0] *537:rf_adc_i_in[4] 0
27 *61:21 *62:21 0.0108883
*RES
1 io_in[4] *62:7 2.58747 
2 *62:7 *62:9 1150.54 
3 *62:9 *62:11 2 
4 *62:11 *62:13 933.675 
5 *62:13 *62:19 8.95 
6 *62:19 *62:21 98.775 
7 *62:21 *537:rf_adc_i_in[4] 31.6751 
*END

*D_NET *63 0.305602
*CONN
*P io_in[5] I
*I *537:rf_adc_i_in[5] I *D phase_099_top_integration
*CAP
1 io_in[5] 0.00106651
2 *537:rf_adc_i_in[5] 0.00312337
3 *63:21 0.00959137
4 *63:19 0.00646799
5 *63:17 0.0551553
6 *63:15 0.0551553
7 *63:13 0.0358035
8 *63:11 0.03687
9 *537:rf_adc_i_in[5] *537:rf_adc_i_in[6] 0.00065616
10 *537:rf_adc_i_in[5] *132:13 0.00578998
11 *537:rf_adc_i_in[5] *289:9 0
12 *537:rf_adc_i_in[5] *299:15 2.61864e-05
13 *63:17 *314:15 0
14 *63:17 *329:15 0
15 *63:21 *537:rf_adc_i_in[6] 0.00157167
16 *63:21 *292:11 0.0133162
17 *63:21 *315:11 0.000160726
18 *63:21 *329:11 0.000119343
19 *63:21 *330:13 0.00124502
20 *63:21 *332:13 0.00251116
21 *63:21 *341:13 0.000975624
22 *63:21 *363:19 0.0432044
23 *537:rf_adc_i_in[10] *537:rf_adc_i_in[5] 0.000101651
24 *537:rf_adc_i_in[4] *537:rf_adc_i_in[5] 0.00945527
25 *30:21 *63:21 0.000972352
26 *31:13 *537:rf_adc_i_in[5] 2.33678e-05
27 *61:21 *63:21 0.012025
28 *62:9 *63:11 0.000428835
29 *62:21 *63:21 0.00978573
*RES
1 io_in[5] *63:11 9.46823 
2 *63:11 *63:13 615.585 
3 *63:13 *63:15 2 
4 *63:15 *63:17 1000.98 
5 *63:17 *63:19 2 
6 *63:19 *63:21 406.515 
7 *63:21 *537:rf_adc_i_in[5] 29.8221 
*END

*D_NET *64 0.377225
*CONN
*P io_in[6] I
*I *537:rf_adc_i_in[6] I *D phase_099_top_integration
*CAP
1 io_in[6] 0.000834179
2 *537:rf_adc_i_in[6] 0.00541634
3 *64:13 0.0537558
4 *64:11 0.0483394
5 *64:9 0.0241289
6 *64:7 0.0249631
7 *537:rf_adc_i_in[6] *121:9 0
8 *537:rf_adc_i_in[6] *126:11 0.00718145
9 *537:rf_adc_i_in[6] *136:11 0
10 *537:rf_adc_i_in[6] *272:11 0.000167461
11 *537:rf_adc_i_in[6] *326:9 0
12 *537:rf_adc_i_in[6] *329:11 0.000948129
13 *537:rf_adc_i_in[6] *363:19 0.0018221
14 *64:9 *67:9 0.0223435
15 *64:13 *66:13 0
16 *64:13 *67:15 0
17 *64:13 *67:17 0
18 *64:13 *295:29 0
19 *64:13 *312:9 3.09608e-05
20 *64:13 *317:19 0.0329888
21 *64:13 *318:11 0.0116152
22 *64:13 *326:11 0.0011256
23 *64:13 *341:13 0
24 *64:13 *346:13 0.0157814
25 *64:13 *351:19 0.0005189
26 *64:13 *352:21 0.00162258
27 *537:rf_adc_i_in[4] *537:rf_adc_i_in[6] 0.0041831
28 *537:rf_adc_i_in[5] *537:rf_adc_i_in[6] 0.00065616
29 *30:21 *537:rf_adc_i_in[6] 0.000212546
30 *31:13 *537:rf_adc_i_in[6] 0.00396503
31 *61:19 *64:13 0
32 *62:9 *64:9 0.0761343
33 *62:13 *64:13 0.0351189
34 *62:21 *537:rf_adc_i_in[6] 0.00179981
35 *63:21 *537:rf_adc_i_in[6] 0.00157167
*RES
1 io_in[6] *64:7 2.5292 
2 *64:7 *64:9 851.295 
3 *64:9 *64:11 0.5 
4 *64:11 *64:13 158.756 
5 *64:13 *537:rf_adc_i_in[6] 37.263 
*END

*D_NET *65 0.244668
*CONN
*P io_in[7] I
*I *537:rf_adc_i_in[7] I *D phase_099_top_integration
*CAP
1 io_in[7] 0.0405465
2 *537:rf_adc_i_in[7] 0.000657211
3 *65:13 0.0220518
4 *65:11 0.0213946
5 *65:9 0.0355089
6 *65:7 0.0355089
7 *65:5 0.0405465
8 *537:rf_adc_i_in[7] *130:10 0.000800964
9 *537:rf_adc_i_in[7] *340:6 0.000554714
10 *65:13 *67:17 0
11 *65:13 *317:29 0.000676849
12 *65:13 *318:21 9.67464e-06
13 *65:13 *321:20 0.000110339
14 *65:13 *325:18 0.0460477
15 *65:13 *340:16 0.000253473
*RES
1 io_in[7] *65:5 99.9755 
2 *65:5 *65:7 0.5 
3 *65:7 *65:9 644.745 
4 *65:9 *65:11 0.5 
5 *65:11 *65:13 77.7949 
6 *65:13 *537:rf_adc_i_in[7] 4.16253 
*END

*D_NET *66 0.24087
*CONN
*P io_in[8] I
*I *537:rf_adc_i_in[8] I *D phase_099_top_integration
*CAP
1 io_in[8] 0.0373854
2 *537:rf_adc_i_in[8] 0
3 *66:13 0.01096
4 *66:11 0.01096
5 *66:9 0.0247339
6 *66:7 0.0247339
7 *66:5 0.0373854
8 *66:5 *142:11 0.000584237
9 *66:13 *67:17 0.0489431
10 *66:13 *130:10 0.000403352
11 *66:13 *312:9 3.33302e-05
12 *66:13 *323:23 0.000884899
13 *66:13 *340:6 0.0434032
14 *66:13 *353:11 0.000229793
15 *66:13 *362:9 0.000229793
16 *64:13 *66:13 0
*RES
1 io_in[8] *66:5 99.1015 
2 *66:5 *66:7 0.5 
3 *66:7 *66:9 448.905 
4 *66:9 *66:11 0.5 
5 *66:11 *66:13 77.1539 
6 *66:13 *537:rf_adc_i_in[8] 0.5 
*END

*D_NET *67 0.249406
*CONN
*P io_in[9] I
*I *537:rf_adc_i_in[9] I *D phase_099_top_integration
*CAP
1 io_in[9] 0.000773227
2 *537:rf_adc_i_in[9] 0.00114958
3 *67:17 0.050601
4 *67:15 0.0525293
5 *67:9 0.011681
6 *67:7 0.00937634
7 *537:rf_adc_i_in[9] *126:11 0.000703989
8 *537:rf_adc_i_in[9] *135:9 0
9 *537:rf_adc_i_in[9] *272:11 0.00123285
10 *537:rf_adc_i_in[9] *281:11 0.000259003
11 *537:rf_adc_i_in[9] *338:16 0.000135708
12 *67:15 io_out[10] 0.00107492
13 *67:17 *130:8 0.00576175
14 *67:17 *130:10 0.00110588
15 *67:17 *304:11 0.00509824
16 *67:17 *314:11 0.00467851
17 *67:17 *318:21 0.0018597
18 *67:17 *321:20 0.0127687
19 *67:17 *325:18 0.000668356
20 *67:17 *338:18 0.0166615
21 *64:9 *67:9 0.0223435
22 *64:13 *67:15 0
23 *64:13 *67:17 0
24 *65:13 *67:17 0
25 *66:13 *67:17 0.0489431
*RES
1 io_in[9] *67:7 2.47093 
2 *67:7 *67:9 250.005 
3 *67:9 *67:15 9.08167 
4 *67:15 *67:17 163.563 
5 *67:17 *537:rf_adc_i_in[9] 16.8743 
*END

*D_NET *68 0.237636
*CONN
*P io_oeb[0] O
*P la_oenb[0] I
*CAP
1 io_oeb[0] 0.0949948
2 la_oenb[0] 0.00699189
3 *68:7 0.0949948
4 *68:5 0.00699189
5 io_oeb[0] *101:9 0.0327365
6 io_oeb[0] *299:177 0.000926229
*RES
1 la_oenb[0] *68:5 122.963 
2 *68:5 *68:7 0.5 
3 *68:7 io_oeb[0] 288.41 
*END

*D_NET *69 0.402488
*CONN
*P io_oeb[10] O
*P la_oenb[10] I
*CAP
1 io_oeb[10] 0.101046
2 la_oenb[10] 0.100198
3 *69:7 0.101046
4 *69:5 0.100198
*RES
1 la_oenb[10] *69:5 1816.16 
2 *69:5 *69:7 0.5 
3 *69:7 io_oeb[10] 265.919 
*END

*D_NET *70 0.42262
*CONN
*P io_oeb[11] O
*P la_oenb[11] I
*CAP
1 io_oeb[11] 0.100139
2 la_oenb[11] 0.111171
3 *70:7 0.100139
4 *70:5 0.111171
5 *70:5 la_data_out[11] 0
6 *70:5 *273:17 0
7 *45:13 *70:5 0
8 *54:9 *70:5 0
*RES
1 la_oenb[11] *70:5 2015.57 
2 *70:5 *70:7 0.5 
3 *70:7 io_oeb[11] 263.705 
*END

*D_NET *71 0.457015
*CONN
*P io_oeb[12] O
*P la_oenb[12] I
*CAP
1 io_oeb[12] 0.0991938
2 la_oenb[12] 0.10556
3 *71:7 0.0991938
4 *71:5 0.10556
5 *71:5 *290:15 3.78569e-05
6 *71:5 *291:15 0.0474688
7 *43:5 *71:5 0
*RES
1 la_oenb[12] *71:5 2214.98 
2 *71:5 *71:7 0.5 
3 *71:7 io_oeb[12] 261.432 
*END

*D_NET *72 0.464037
*CONN
*P io_oeb[13] O
*P la_oenb[13] I
*CAP
1 io_oeb[13] 0.0329092
2 la_oenb[13] 0.00655611
3 *72:15 0.0329092
4 *72:13 0.126466
5 *72:11 0.126466
6 *72:9 0.065812
7 *72:7 0.065812
8 *72:5 0.00655611
9 *72:9 *308:157 0.000549092
*RES
1 la_oenb[13] *72:5 114.802 
2 *72:5 *72:7 0.5 
3 *72:7 *72:9 172.391 
4 *72:9 *72:11 0.5 
5 *72:11 *72:13 2299.19 
6 *72:13 *72:15 0.5 
7 *72:15 io_oeb[13] 86.8655 
*END

*D_NET *73 0.485277
*CONN
*P io_oeb[14] O
*P la_oenb[14] I
*CAP
1 io_oeb[14] 0.0202547
2 la_oenb[14] 0.00744411
3 *73:15 0.0202547
4 *73:13 0.136516
5 *73:11 0.136516
6 *73:9 0.0779677
7 *73:7 0.0779677
8 *73:5 0.00744411
9 *73:5 *276:17 0
10 *73:9 *101:9 0
11 *73:9 *102:9 0
12 *73:9 *317:125 0.000912563
*RES
1 la_oenb[14] *73:5 130.613 
2 *73:5 *73:7 0.5 
3 *73:7 *73:9 203.33 
4 *73:9 *73:11 0.5 
5 *73:11 *73:13 2482.78 
6 *73:13 *73:15 0.5 
7 *73:15 io_oeb[14] 53.6535 
*END

*D_NET *74 0.534978
*CONN
*P io_oeb[15] O
*P la_oenb[15] I
*CAP
1 io_oeb[15] 0.143812
2 la_oenb[15] 0.00139485
3 *74:11 0.143812
4 *74:9 0.0444246
5 *74:7 0.0458194
6 *74:9 io_oeb[37] 0.000786433
7 *74:9 *75:9 0.114792
8 *74:9 *194:9 0.0401377
*RES
1 la_oenb[15] *74:7 22.4825 
2 *74:7 *74:9 219.004 
3 *74:9 *74:11 0.5 
4 *74:11 io_oeb[15] 2615.33 
*END

*D_NET *75 0.544084
*CONN
*P io_oeb[16] O
*P la_oenb[16] I
*CAP
1 io_oeb[16] 0.143817
2 la_oenb[16] 0.00142762
3 *75:11 0.143817
4 *75:9 0.0250659
5 *75:7 0.0264936
6 *75:7 *278:21 0
7 *75:9 io_oeb[37] 0.0308224
8 *75:9 *323:31 0.0307378
9 *75:9 *358:13 0.0271097
10 *74:9 *75:9 0.114792
*RES
1 la_oenb[16] *75:7 22.9925 
2 *75:7 *75:9 175.712 
3 *75:9 *75:11 0.5 
4 *75:11 io_oeb[16] 2614.82 
*END

*D_NET *76 0.551201
*CONN
*P io_oeb[17] O
*P la_oenb[17] I
*CAP
1 io_oeb[17] 0.00157531
2 la_oenb[17] 0.0479634
3 *76:21 0.0833423
4 *76:19 0.0947949
5 *76:9 0.0592602
6 *76:7 0.0462324
7 *76:5 0.0479634
8 io_oeb[17] *113:11 0.00591751
9 *76:9 *77:19 7.60604e-06
10 *76:9 *78:23 2.02526e-05
11 *76:9 *80:25 9.70745e-06
12 *76:9 *280:15 0
13 *76:9 *281:35 1.42293e-05
14 *76:9 *290:21 0
15 *76:9 *296:29 0.000287293
16 *76:9 *300:15 0
17 *76:9 *303:15 0.0044145
18 *76:9 *308:37 0.00142701
19 *76:9 *311:15 0
20 *76:9 *312:27 0.0100682
21 *76:9 *316:29 1.42367e-05
22 *76:9 *320:37 1.42367e-05
23 *76:9 *321:26 0
24 *76:9 *334:29 1.42293e-05
25 *76:9 *336:15 0
26 *76:9 *360:15 0.000112351
27 *76:19 *292:15 0.00592214
28 *76:19 *295:31 0.0165568
29 *76:19 *309:37 2.87821e-05
30 *76:19 *317:41 0
31 *76:19 *330:15 0.0109231
32 *76:19 *332:15 0.00601545
33 *76:19 *345:15 0.00542314
34 *76:21 *114:17 0.0193984
35 *76:21 *295:31 0.0234536
36 *76:21 *330:15 0.0254211
37 *76:21 *332:15 0.0142128
38 *36:9 io_oeb[17] 0.00591751
39 *38:9 *76:9 0.0144746
*RES
1 la_oenb[17] *76:5 865.523 
2 *76:5 *76:7 0.5 
3 *76:7 *76:9 141.131 
4 *76:9 *76:19 48.7625 
5 *76:19 *76:21 249.726 
6 *76:21 io_oeb[17] 21.0796 
*END

*D_NET *77 0.682204
*CONN
*P io_oeb[18] O
*P la_oenb[18] I
*CAP
1 io_oeb[18] 0.000631275
2 la_oenb[18] 0.0473624
3 *77:25 0.0164354
4 *77:23 0.0158041
5 *77:21 0.0731979
6 *77:19 0.0748438
7 *77:5 0.0490083
8 *77:5 *296:47 0.000238332
9 *77:5 *299:95 0.000627516
10 *77:5 *308:45 0.00166198
11 *77:19 *80:25 0.00331846
12 *77:19 *281:35 0.00790573
13 *77:19 *308:37 2.05487e-06
14 *77:21 *78:25 0.0531386
15 *77:21 *80:27 0
16 *77:21 *279:15 0.0205705
17 *77:21 *289:15 0
18 *77:21 *308:23 0
19 *77:25 *78:29 0.0402509
20 *77:25 *113:11 0.000622404
21 *537:rf_adc_q_in[13] *77:19 9.54817e-06
22 *537:rf_adc_q_in[2] *77:19 0.0018178
23 *36:9 *77:25 0.00835948
24 *37:9 *77:25 0.0031924
25 *37:13 *77:21 0.0961285
26 *38:9 *77:19 3.99991e-05
27 *39:13 *77:21 0.0357674
28 *40:9 *77:25 0.0540497
29 *40:13 *77:21 0.037217
30 *42:13 *77:21 0.0399948
31 *76:9 *77:19 7.60604e-06
*RES
1 la_oenb[18] *77:5 867.562 
2 *77:5 *77:19 14.3994 
3 *77:19 *77:21 296.423 
4 *77:21 *77:23 0.5 
5 *77:23 *77:25 100.694 
6 *77:25 io_oeb[18] 11.7725 
*END

*D_NET *78 0.573297
*CONN
*P io_oeb[19] O
*P la_oenb[19] I
*CAP
1 io_oeb[19] 0.000596707
2 la_oenb[19] 0.0476937
3 *78:29 0.009423
4 *78:27 0.0088263
5 *78:25 0.0415049
6 *78:23 0.0452197
7 *78:5 0.0514085
8 *78:5 *296:51 0.000985305
9 *78:5 *299:103 0
10 *78:5 *308:47 0
11 *78:23 *80:25 0.00776703
12 *78:23 *131:13 0
13 *78:23 *281:35 0
14 *78:23 *286:37 0.000601428
15 *78:25 *279:15 0.081324
16 *78:25 *286:15 0
17 *537:rf_adc_q_in[13] *78:23 1.85934e-05
18 *537:rf_adc_q_in[14] *78:23 0.000789104
19 *37:9 *78:29 4.73375e-06
20 *38:9 *78:23 7.86939e-05
21 *39:13 *78:25 0.157254
22 *42:9 *78:29 0.0263145
23 *42:13 *78:25 7.66985e-05
24 *76:9 *78:23 2.02526e-05
25 *77:21 *78:25 0.0531386
26 *77:25 *78:29 0.0402509
*RES
1 la_oenb[19] *78:5 867.562 
2 *78:5 *78:23 17.1215 
3 *78:23 *78:25 1753.48 
4 *78:25 *78:27 0.5 
5 *78:27 *78:29 59.6448 
6 *78:29 io_oeb[19] 11.2625 
*END

*D_NET *79 0.249263
*CONN
*P io_oeb[1] O
*P la_oenb[1] I
*CAP
1 io_oeb[1] 0.109423
2 la_oenb[1] 0.0152082
3 *79:7 0.109423
4 *79:5 0.0152082
5 io_oeb[1] *318:77 0
*RES
1 la_oenb[1] *79:5 272.392 
2 *79:5 *79:7 0.5 
3 *79:7 io_oeb[1] 286.137 
*END

*D_NET *80 0.402219
*CONN
*P io_oeb[20] O
*P la_oenb[20] I
*CAP
1 io_oeb[20] 0.00474845
2 la_oenb[20] 0.048111
3 *80:27 0.0863495
4 *80:25 0.084711
5 *80:5 0.0512209
6 *80:25 *131:13 0
7 *80:25 *281:35 0.000402449
8 *80:25 *286:37 0
9 *80:27 *289:15 0.0858257
10 *80:27 *308:37 0.0170733
11 *537:rf_adc_q_in[13] *80:25 9.81702e-05
12 *537:rf_adc_q_in[2] *80:25 0.000655225
13 *38:9 *80:25 4.00045e-05
14 *42:9 io_oeb[20] 0.0118877
15 *76:9 *80:25 9.70745e-06
16 *77:19 *80:25 0.00331846
17 *77:21 *80:27 0
18 *78:23 *80:25 0.00776703
*RES
1 la_oenb[20] *80:5 867.562 
2 *80:5 *80:25 18.3843 
3 *80:25 *80:27 296.423 
4 *80:27 io_oeb[20] 28.3479 
*END

*D_NET *81 0.322259
*CONN
*P io_oeb[21] O
*P la_oenb[21] I
*CAP
1 io_oeb[21] 0.00161286
2 la_oenb[21] 0.0251526
3 *81:13 0.120964
4 *81:11 0.134006
5 *81:5 0.0398077
6 *81:5 *283:17 0
7 *81:5 *299:121 0
8 *81:13 *100:5 0
9 *45:9 io_oeb[21] 0.000716381
*RES
1 la_oenb[21] *81:5 451.402 
2 *81:5 *81:11 38.9696 
3 *81:11 *81:13 2171.69 
4 *81:13 io_oeb[21] 18.5169 
*END

*D_NET *82 0.388911
*CONN
*P io_oeb[22] O
*P la_oenb[22] I
*CAP
1 io_oeb[22] 0.144003
2 la_oenb[22] 0.00113803
3 *82:11 0.144003
4 *82:9 0.0173811
5 *82:7 0.0185192
6 *82:7 *238:23 0
7 *82:9 *83:9 0.0568041
8 *82:9 *194:9 0.0070616
*RES
1 la_oenb[22] *82:7 17.8925 
2 *82:7 *82:9 84.4081 
3 *82:9 *82:11 0.5 
4 *82:11 io_oeb[22] 2619.92 
*END

*D_NET *83 0.423213
*CONN
*P io_oeb[23] O
*P la_oenb[23] I
*CAP
1 io_oeb[23] 0.144034
2 la_oenb[23] 0.00110552
3 *83:11 0.144034
4 *83:9 0.0333139
5 *83:7 0.0344194
6 *83:7 *285:25 0
7 *83:9 *194:9 0
8 *83:9 *205:9 0.000727368
9 *83:9 *227:9 0.00877424
10 *83:9 *283:23 0
11 *83:9 *284:31 0
12 *82:9 *83:9 0.0568041
*RES
1 la_oenb[23] *83:7 17.3825 
2 *83:7 *83:9 127.759 
3 *83:9 *83:11 0.5 
4 *83:11 io_oeb[23] 2620.43 
*END

*D_NET *84 0.380607
*CONN
*P io_oeb[24] O
*P la_oenb[24] I
*CAP
1 io_oeb[24] 0.00720876
2 la_oenb[24] 0.00313134
3 *84:13 0.139873
4 *84:11 0.132664
5 *84:9 0.047299
6 *84:7 0.047299
7 *84:5 0.00313134
8 *84:9 *85:9 0
*RES
1 la_oenb[24] *84:5 53.0925 
2 *84:5 *84:7 0.5 
3 *84:7 *84:9 116.397 
4 *84:9 *84:11 0.5 
5 *84:11 *84:13 2413.94 
6 *84:13 io_oeb[24] 19.1352 
*END

*D_NET *85 0.357788
*CONN
*P io_oeb[25] O
*P la_oenb[25] I
*CAP
1 io_oeb[25] 0.00381958
2 la_oenb[25] 0.00340797
3 *85:13 0.12547
4 *85:11 0.12165
5 *85:9 0.0500164
6 *85:7 0.0500164
7 *85:5 0.00340797
8 *85:5 *287:17 0
9 *85:9 *86:9 0
10 *85:13 *133:27 0
11 *84:9 *85:9 0
*RES
1 la_oenb[25] *85:5 58.1925 
2 *85:5 *85:7 0.5 
3 *85:7 *85:9 127.351 
4 *85:9 *85:11 0.5 
5 *85:11 *85:13 2213.5 
6 *85:13 io_oeb[25] 10.3952 
*END

*D_NET *86 0.337447
*CONN
*P io_oeb[26] O
*P la_oenb[26] I
*CAP
1 io_oeb[26] 0.00479524
2 la_oenb[26] 0.00293066
3 *86:13 0.115406
4 *86:11 0.110611
5 *86:9 0.048767
6 *86:7 0.048767
7 *86:5 0.00293066
8 *86:5 *464:13 0.00323965
9 *86:9 *89:9 0
10 *85:9 *86:9 0
*RES
1 la_oenb[26] *86:5 63.2925 
2 *86:5 *86:7 0.5 
3 *86:7 *86:9 127.875 
4 *86:9 *86:11 0.5 
5 *86:11 *86:13 2012.56 
6 *86:13 io_oeb[26] 12.1432 
*END

*D_NET *87 0.318415
*CONN
*P io_oeb[27] O
*P la_oenb[27] I
*CAP
1 io_oeb[27] 0.00784396
2 la_oenb[27] 0.00423967
3 *87:13 0.107147
4 *87:11 0.0993033
5 *87:9 0.0478207
6 *87:7 0.0478207
7 *87:5 0.00423967
8 *87:9 *89:9 0
*RES
1 la_oenb[27] *87:5 73.4925 
2 *87:5 *87:7 0.5 
3 *87:7 *87:9 121.349 
4 *87:9 *87:11 0.5 
5 *87:11 *87:13 1807.04 
6 *87:13 io_oeb[27] 20.8832 
*END

*D_NET *88 0.297816
*CONN
*P io_oeb[28] O
*P la_oenb[28] I
*CAP
1 io_oeb[28] 0.0175428
2 la_oenb[28] 0.00480468
3 *88:13 0.105512
4 *88:11 0.0879688
5 *88:9 0.0385915
6 *88:7 0.0385915
7 *88:5 0.00480468
8 *88:5 *299:205 0
*RES
1 la_oenb[28] *88:5 83.6925 
2 *88:5 *88:7 0.5 
3 *88:7 *88:9 100.898 
4 *88:9 *88:11 0.5 
5 *88:11 *88:13 1600.99 
6 *88:13 io_oeb[28] 43.6072 
*END

*D_NET *89 0.279255
*CONN
*P io_oeb[29] O
*P la_oenb[29] I
*CAP
1 io_oeb[29] 0.00847116
2 la_oenb[29] 0.00396209
3 *89:13 0.0865541
4 *89:11 0.078083
5 *89:9 0.0490812
6 *89:7 0.0490812
7 *89:5 0.00396209
8 *89:9 *299:193 5.99807e-05
9 *86:9 *89:9 0
10 *87:9 *89:9 0
*RES
1 la_oenb[29] *89:5 68.3925 
2 *89:5 *89:7 0.5 
3 *89:7 *89:9 124.088 
4 *89:9 *89:11 0.5 
5 *89:11 *89:13 1420.96 
6 *89:13 io_oeb[29] 22.6312 
*END

*D_NET *90 0.264161
*CONN
*P io_oeb[2] O
*P la_oenb[2] I
*CAP
1 io_oeb[2] 0.107422
2 la_oenb[2] 0.00255735
3 *90:15 0.107422
4 *90:13 0.0216305
5 *90:11 0.0241878
6 io_oeb[2] *308:125 0
7 *90:11 *134:13 0.000470753
8 *90:11 *464:9 0.000470753
*RES
1 la_oenb[2] *90:11 33.7004 
2 *90:11 *90:13 392.295 
3 *90:13 *90:15 0.5 
4 *90:15 io_oeb[2] 280.893 
*END

*D_NET *91 0.256263
*CONN
*P io_oeb[30] O
*P la_oenb[30] I
*CAP
1 io_oeb[30] 0.00555612
2 la_oenb[30] 0.00511327
3 *91:13 0.0717502
4 *91:11 0.0661941
5 *91:9 0.051268
6 *91:7 0.051268
7 *91:5 0.00511327
8 *91:5 *299:205 0
*RES
1 la_oenb[30] *91:5 89.3025 
2 *91:5 *91:7 0.5 
3 *91:7 *91:9 134.226 
4 *91:9 *91:11 0.5 
5 *91:11 *91:13 1204.72 
6 *91:13 io_oeb[30] 14.7652 
*END

*D_NET *92 0.237745
*CONN
*P io_oeb[31] O
*P la_oenb[31] I
*CAP
1 io_oeb[31] 0.0324126
2 la_oenb[31] 0.00855286
3 *92:15 0.0324126
4 *92:13 0.0520396
5 *92:11 0.0520396
6 *92:9 0.0257611
7 *92:7 0.0257611
8 *92:5 0.00855286
9 *92:9 *104:9 0
10 *92:9 *299:155 0
11 *92:9 *299:177 0.000212414
*RES
1 la_oenb[31] *92:5 151.012 
2 *92:5 *92:7 0.5 
3 *92:7 *92:9 65.6463 
4 *92:9 *92:11 0.5 
5 *92:11 *92:13 947.175 
6 *92:13 *92:15 0.5 
7 *92:15 io_oeb[31] 85.0592 
*END

*D_NET *93 0.218145
*CONN
*P io_oeb[32] O
*P la_oenb[32] I
*CAP
1 io_oeb[32] 0.000872253
2 la_oenb[32] 0.00567768
3 *93:13 0.0449924
4 *93:11 0.0441201
5 *93:9 0.0577987
6 *93:7 0.0577987
7 *93:5 0.00567768
8 *93:13 io_out[32] 0.00107775
9 *93:13 io_out[33] 0.000129811
*RES
1 la_oenb[32] *93:5 99.5025 
2 *93:5 *93:7 0.5 
3 *93:7 *93:9 150.949 
4 *93:9 *93:11 0.5 
5 *93:11 *93:13 803.355 
6 *93:13 io_oeb[32] 2.5292 
*END

*D_NET *94 0.198464
*CONN
*P io_oeb[33] O
*P la_oenb[33] I
*CAP
1 io_oeb[33] 0.0590258
2 la_oenb[33] 0.0355047
3 *94:7 0.0590258
4 *94:5 0.0355047
5 io_oeb[33] *308:77 0.000855652
6 *94:5 *296:197 0.00335931
7 *94:5 *308:95 0.00518783
*RES
1 la_oenb[33] *94:5 706.912 
2 *94:5 *94:7 0.5 
3 *94:7 io_oeb[33] 155.154 
*END

*D_NET *95 0.184989
*CONN
*P io_oeb[34] O
*P la_oenb[34] I
*CAP
1 io_oeb[34] 0.0641076
2 la_oenb[34] 0.0283868
3 *95:7 0.0641076
4 *95:5 0.0283868
*RES
1 la_oenb[34] *95:5 511.582 
2 *95:5 *95:7 0.5 
3 *95:7 io_oeb[34] 157.426 
*END

*D_NET *96 0.15725
*CONN
*P io_oeb[35] O
*P la_oenb[35] I
*CAP
1 io_oeb[35] 0.0609749
2 la_oenb[35] 0.01765
3 *96:7 0.0609749
4 *96:5 0.01765
*RES
1 la_oenb[35] *96:5 316.253 
2 *96:5 *96:7 0.5 
3 *96:7 io_oeb[35] 159.699 
*END

*D_NET *97 0.142868
*CONN
*P io_oeb[36] O
*P la_oenb[36] I
*CAP
1 io_oeb[36] 0.0618514
2 la_oenb[36] 0.00958282
3 *97:7 0.0618514
4 *97:5 0.00958282
*RES
1 la_oenb[36] *97:5 169.372 
2 *97:5 *97:7 0.5 
3 *97:7 io_oeb[36] 161.913 
*END

*D_NET *98 0.155592
*CONN
*P io_oeb[37] O
*P la_oenb[37] I
*CAP
1 io_oeb[37] 0.0590001
2 la_oenb[37] 0.00147183
3 *98:7 0.0604719
4 io_oeb[37] *194:9 0
5 io_oeb[37] *299:205 0.00229682
6 io_oeb[37] *358:13 0.000742275
7 io_oeb[37] *464:9 0
8 *74:9 io_oeb[37] 0.000786433
9 *75:9 io_oeb[37] 0.0308224
*RES
1 la_oenb[37] *98:7 23.5025 
2 *98:7 io_oeb[37] 164.185 
*END

*D_NET *99 0.278782
*CONN
*P io_oeb[3] O
*P la_oenb[3] I
*CAP
1 io_oeb[3] 0.107737
2 la_oenb[3] 0.0316537
3 *99:7 0.107737
4 *99:5 0.0316537
*RES
1 la_oenb[3] *99:5 571.253 
2 *99:5 *99:7 0.5 
3 *99:7 io_oeb[3] 281.651 
*END

*D_NET *100 0.294952
*CONN
*P io_oeb[4] O
*P la_oenb[4] I
*CAP
1 io_oeb[4] 0.106856
2 la_oenb[4] 0.0398667
3 *100:7 0.106856
4 *100:5 0.0398667
5 io_oeb[4] *296:91 0.00128434
6 io_oeb[4] *308:69 0.000223244
7 *81:13 *100:5 0
*RES
1 la_oenb[4] *100:5 720.682 
2 *100:5 *100:7 0.5 
3 *100:7 io_oeb[4] 279.379 
*END

*D_NET *101 0.311387
*CONN
*P io_oeb[5] O
*P la_oenb[5] I
*CAP
1 io_oeb[5] 0.0232608
2 la_oenb[5] 0.00739274
3 *101:15 0.0232608
4 *101:13 0.040962
5 *101:11 0.040962
6 *101:9 0.0675655
7 *101:7 0.0675655
8 *101:5 0.00739274
9 *101:9 *299:177 0.000288881
10 io_oeb[0] *101:9 0.0327365
11 *73:9 *101:9 0
*RES
1 la_oenb[5] *101:5 125.512 
2 *101:5 *101:7 0.5 
3 *101:7 *101:9 215.683 
4 *101:9 *101:11 0.5 
5 *101:11 *101:13 744.705 
6 *101:13 *101:15 0.5 
7 *101:15 io_oeb[5] 61.5195 
*END

*D_NET *102 0.323838
*CONN
*P io_oeb[6] O
*P la_oenb[6] I
*CAP
1 io_oeb[6] 0.0380387
2 la_oenb[6] 0.00798159
3 *102:15 0.0380387
4 *102:13 0.0485984
5 *102:11 0.0485984
6 *102:9 0.0672106
7 *102:7 0.0672106
8 *102:5 0.00798159
9 *102:9 *103:9 0
10 *102:9 *299:177 0.000179605
11 *73:9 *102:9 0
*RES
1 la_oenb[6] *102:5 135.712 
2 *102:5 *102:7 0.5 
3 *102:7 *102:9 174.955 
4 *102:9 *102:11 0.5 
5 *102:11 *102:13 883.935 
6 *102:13 *102:15 0.5 
7 *102:15 io_oeb[6] 99.9755 
*END

*D_NET *103 0.34543
*CONN
*P io_oeb[7] O
*P la_oenb[7] I
*CAP
1 io_oeb[7] 0.0354374
2 la_oenb[7] 0.00800921
3 *103:15 0.0354374
4 *103:13 0.059255
5 *103:11 0.059255
6 *103:9 0.0689102
7 *103:7 0.0689102
8 *103:5 0.00800921
9 *103:5 *144:15 0
10 *103:5 *344:23 0
11 *103:9 *104:9 0
12 *103:9 *299:177 0.000177979
13 *103:13 *141:11 0.00202873
14 *102:9 *103:9 0
*RES
1 la_oenb[7] *103:5 140.812 
2 *103:5 *103:7 0.5 
3 *103:7 *103:9 179.732 
4 *103:9 *103:11 0.5 
5 *103:11 *103:13 1077.73 
6 *103:13 *103:15 0.5 
7 *103:15 io_oeb[7] 92.9835 
*END

*D_NET *104 0.372629
*CONN
*P io_oeb[8] O
*P la_oenb[8] I
*CAP
1 io_oeb[8] 0.0341083
2 la_oenb[8] 0.00829761
3 *104:15 0.0341083
4 *104:13 0.0699727
5 *104:11 0.0699727
6 *104:9 0.0739358
7 *104:7 0.0739358
8 *104:5 0.00829761
9 *104:5 *282:37 0
10 *104:13 la_data_out[91] 0
11 *92:9 *104:9 0
12 *103:9 *104:9 0
*RES
1 la_oenb[8] *104:5 145.913 
2 *104:5 *104:7 0.5 
3 *104:7 *104:9 186.2 
4 *104:9 *104:11 0.5 
5 *104:11 *104:13 1272.05 
6 *104:13 *104:15 0.5 
7 *104:15 io_oeb[8] 84.2435 
*END

*D_NET *105 0.385423
*CONN
*P io_oeb[9] O
*P la_oenb[9] I
*CAP
1 io_oeb[9] 0.0309695
2 la_oenb[9] 0.00881548
3 *105:15 0.0309695
4 *105:13 0.0803382
5 *105:11 0.0803382
6 *105:9 0.0716771
7 *105:7 0.0716771
8 *105:5 0.00881548
9 *105:5 *260:15 0.000316687
10 *105:5 *364:17 0
11 *105:9 *299:155 6.91517e-05
12 *105:9 *299:177 0
13 *105:9 *308:133 0
14 *105:9 *317:119 0.00143641
*RES
1 la_oenb[9] *105:5 156.622 
2 *105:5 *105:7 0.5 
3 *105:7 *105:9 186.608 
4 *105:9 *105:11 0.5 
5 *105:11 *105:13 1460.74 
6 *105:13 *105:15 0.5 
7 *105:15 io_oeb[9] 81.6215 
*END

*D_NET *106 0.246708
*CONN
*P io_out[0] O
*I *537:rf_dac_i_out[0] O *D phase_099_top_integration
*CAP
1 io_out[0] 0.0372696
2 *537:rf_dac_i_out[0] 0.00371222
3 *106:11 0.0372696
4 *106:9 0.0814872
5 *106:7 0.0851994
6 *106:7 *108:7 0.00152246
7 *106:9 *108:9 0.000247677
8 *106:9 *138:9 0
*RES
1 *537:rf_dac_i_out[0] *106:7 11.007 
2 *106:7 *106:9 221.917 
3 *106:9 *106:11 0.5 
4 *106:11 io_out[0] 98.2566 
*END

*D_NET *107 0.132051
*CONN
*P io_out[10] O
*I *537:rf_dac_i_out[10] O *D phase_099_top_integration
*CAP
1 io_out[10] 0.00171916
2 *537:rf_dac_i_out[10] 0.0374864
3 *107:9 0.0255303
4 *107:7 0.0238111
5 *107:5 0.0374864
6 *107:5 *108:7 0.00153928
7 *107:5 *143:7 0.00340339
8 *67:15 io_out[10] 0.00107492
*RES
1 *537:rf_dac_i_out[10] *107:5 103.967 
2 *107:5 *107:7 0.5 
3 *107:7 *107:9 64.9825 
4 *107:9 io_out[10] 5.459 
*END

*D_NET *108 0.155888
*CONN
*P io_out[11] O
*I *537:rf_dac_i_out[11] O *D phase_099_top_integration
*CAP
1 io_out[11] 0.0372361
2 *537:rf_dac_i_out[11] 0.00293134
3 *108:11 0.0372361
4 *108:9 0.0361221
5 *108:7 0.0390534
6 *106:7 *108:7 0.00152246
7 *106:9 *108:9 0.000247677
8 *107:5 *108:7 0.00153928
*RES
1 *537:rf_dac_i_out[11] *108:7 11.1235 
2 *108:7 *108:9 98.23 
3 *108:9 *108:11 0.5 
4 *108:11 io_out[11] 98.1401 
*END

*D_NET *109 0.178776
*CONN
*P io_out[12] O
*I *537:rf_dac_i_out[12] O *D phase_099_top_integration
*CAP
1 io_out[12] 0.0366394
2 *537:rf_dac_i_out[12] 0.00493059
3 *109:11 0.0366394
4 *109:9 0.0478178
5 *109:7 0.0527483
*RES
1 *537:rf_dac_i_out[12] *109:7 12.755 
2 *109:7 *109:9 130.185 
3 *109:9 *109:11 0.5 
4 *109:11 io_out[12] 96.5086 
*END

*D_NET *110 0.207435
*CONN
*P io_out[13] O
*I *537:rf_dac_i_out[13] O *D phase_099_top_integration
*CAP
1 io_out[13] 0.0376611
2 *537:rf_dac_i_out[13] 0.00518421
3 *110:11 0.0376611
4 *110:9 0.0597026
5 *110:7 0.0648869
6 *110:7 *111:5 0.00233885
*RES
1 *537:rf_dac_i_out[13] *110:7 16.251 
2 *110:7 *110:9 162.141 
3 *110:9 *110:11 0.5 
4 *110:11 io_out[13] 93.0126 
*END

*D_NET *111 0.231044
*CONN
*P io_out[14] O
*I *537:rf_dac_i_out[14] O *D phase_099_top_integration
*CAP
1 io_out[14] 0.0183663
2 *537:rf_dac_i_out[14] 0.0221232
3 *111:9 0.0921315
4 *111:7 0.0737652
5 *111:5 0.0221232
6 *111:5 *112:7 0
7 *111:5 *337:7 0.000196022
8 *110:7 *111:5 0.00233885
*RES
1 *537:rf_dac_i_out[14] *111:5 60.2667 
2 *111:5 *111:7 0.5 
3 *111:7 *111:9 195.302 
4 *111:9 io_out[14] 48.9969 
*END

*D_NET *112 0.198873
*CONN
*P io_out[15] O
*I *537:rf_dac_i_out[15] O *D phase_099_top_integration
*CAP
1 io_out[15] 0.0624298
2 *537:rf_dac_i_out[15] 0.0165853
3 *112:15 0.0778067
4 *112:9 0.0203231
5 *112:7 0.0215316
6 *112:7 *337:7 0.000196022
7 *111:5 *112:7 0
*RES
1 *537:rf_dac_i_out[15] *112:7 43.3741 
2 *112:7 *112:9 89.865 
3 *112:9 *112:15 41.5333 
4 *112:15 io_out[15] 1135.31 
*END

*D_NET *113 0.183497
*CONN
*P io_out[16] O
*I *537:rf_dac_q_out[0] O *D phase_099_top_integration
*CAP
1 io_out[16] 0.000596707
2 *537:rf_dac_q_out[0] 1.22321e-05
3 *113:11 0.0247829
4 *113:9 0.0241862
5 *113:7 0.0472338
6 *113:5 0.047246
7 *113:7 *322:17 0.000116165
8 io_oeb[17] *113:11 0.00591751
9 *36:9 *113:11 0.0326189
10 *62:19 *113:7 0.000163998
11 *77:25 *113:11 0.000622404
*RES
1 *537:rf_dac_q_out[0] *113:5 0.225 
2 *113:5 *113:7 858.435 
3 *113:7 *113:9 0.5 
4 *113:9 *113:11 93.3812 
5 *113:11 io_out[16] 11.2625 
*END

*D_NET *114 0.153607
*CONN
*P io_out[17] O
*I *537:rf_dac_q_out[1] O *D phase_099_top_integration
*CAP
1 io_out[17] 0.00123434
2 *537:rf_dac_q_out[1] 0.00102344
3 *114:17 0.0474673
4 *114:15 0.0622764
5 *114:11 0.0170669
6 *114:11 *115:13 0
7 *114:15 *115:13 0
8 *114:15 *323:13 0
9 *114:15 *331:13 0.00493051
10 *37:9 io_out[17] 0.000209338
11 *76:21 *114:17 0.0193984
*RES
1 *537:rf_dac_q_out[1] *114:11 15.92 
2 *114:11 *114:15 47.3261 
3 *114:15 *114:17 841.605 
4 *114:17 io_out[17] 16.4776 
*END

*D_NET *115 0.102022
*CONN
*P io_out[18] O
*I *537:rf_dac_q_out[2] O *D phase_099_top_integration
*CAP
1 io_out[18] 0.00126045
2 *537:rf_dac_q_out[2] 0.00369336
3 *115:15 0.0472125
4 *115:13 0.0496454
5 *37:9 io_out[18] 0.000210849
6 *114:11 *115:13 0
7 *114:15 *115:13 0
*RES
1 *537:rf_dac_q_out[2] *115:13 26.9975 
2 *115:13 *115:15 836.505 
3 *115:15 io_out[18] 16.4776 
*END

*D_NET *116 0.134032
*CONN
*P io_out[19] O
*I *537:rf_dac_q_out[3] O *D phase_099_top_integration
*CAP
1 io_out[19] 0.0469244
2 *537:rf_dac_q_out[3] 0.00110504
3 *116:13 0.0548714
4 *116:9 0.00905204
5 *116:9 *118:9 0
6 *116:13 *118:11 0.0220791
*RES
1 *537:rf_dac_q_out[3] *116:9 17.51 
2 *116:9 *116:13 33.4587 
3 *116:13 io_out[19] 853.792 
*END

*D_NET *117 0.221738
*CONN
*P io_out[1] O
*I *537:rf_dac_i_out[1] O *D phase_099_top_integration
*CAP
1 io_out[1] 0.0277085
2 *537:rf_dac_i_out[1] 0.0139224
3 *117:11 0.0277085
4 *117:9 0.0692381
5 *117:7 0.0831605
*RES
1 *537:rf_dac_i_out[1] *117:7 36.2947 
2 *117:7 *117:9 188.498 
3 *117:9 *117:11 0.5 
4 *117:11 io_out[1] 72.9689 
*END

*D_NET *118 0.19376
*CONN
*P io_out[20] O
*I *537:rf_dac_q_out[4] O *D phase_099_top_integration
*CAP
1 io_out[20] 0.0469654
2 *537:rf_dac_q_out[4] 0.000983225
3 *118:13 0.0469654
4 *118:11 0.0133159
5 *118:9 0.0142991
6 *118:11 *119:11 0.0491514
7 *116:9 *118:9 0
8 *116:13 *118:11 0.0220791
*RES
1 *537:rf_dac_q_out[4] *118:9 15.965 
2 *118:9 *118:11 73.8036 
3 *118:11 *118:13 0.5 
4 *118:13 io_out[20] 854.302 
*END

*D_NET *119 0.256208
*CONN
*P io_out[21] O
*I *537:rf_dac_q_out[5] O *D phase_099_top_integration
*CAP
1 io_out[21] 0.0469504
2 *537:rf_dac_q_out[5] 0.00101631
3 *119:13 0.0469504
4 *119:11 0.0174253
5 *119:9 0.0184416
6 *119:11 *120:11 0.0762726
7 *119:11 *323:13 0
8 *118:11 *119:11 0.0491514
*RES
1 *537:rf_dac_q_out[5] *119:9 16.145 
2 *119:9 *119:11 113.949 
3 *119:11 *119:13 0.5 
4 *119:13 io_out[21] 854.812 
*END

*D_NET *120 0.322043
*CONN
*P io_out[22] O
*I *537:rf_dac_q_out[6] O *D phase_099_top_integration
*CAP
1 io_out[22] 0.0488704
2 *537:rf_dac_q_out[6] 0.00101881
3 *120:13 0.0488704
4 *120:11 0.0215119
5 *120:9 0.0225307
6 *120:11 *121:11 0.102968
7 *120:11 *323:13 0
8 *119:11 *120:11 0.0762726
*RES
1 *537:rf_dac_q_out[6] *120:9 15.98 
2 *120:9 *120:11 154.212 
3 *120:11 *120:13 0.5 
4 *120:13 io_out[22] 855.323 
*END

*D_NET *121 0.312019
*CONN
*P io_out[23] O
*I *537:rf_dac_q_out[7] O *D phase_099_top_integration
*CAP
1 io_out[23] 0.0489049
2 *537:rf_dac_q_out[7] 0.000984799
3 *121:13 0.0489049
4 *121:11 0.0478457
5 *121:9 0.0488305
6 *121:11 *129:13 0.0135808
7 *121:11 *132:13 0
8 *121:11 *323:13 0
9 *537:rf_adc_i_in[6] *121:9 0
10 *120:11 *121:11 0.102968
*RES
1 *537:rf_dac_q_out[7] *121:9 15.125 
2 *121:9 *121:11 193.716 
3 *121:11 *121:13 0.5 
4 *121:13 io_out[23] 855.833 
*END

*D_NET *122 0.240324
*CONN
*P io_out[24] O
*I *537:rf_dac_q_out[8] O *D phase_099_top_integration
*CAP
1 io_out[24] 0.0779228
2 *537:rf_dac_q_out[8] 1.22321e-05
3 *122:9 0.0779228
4 *122:7 0.0412436
5 *122:5 0.0412558
6 *122:7 *123:7 0
7 *122:7 *129:11 0
8 *35:5 io_out[24] 0.00196651
*RES
1 *537:rf_dac_q_out[8] *122:5 0.225 
2 *122:5 *122:7 747.765 
3 *122:7 *122:9 0.5 
4 *122:9 io_out[24] 207.536 
*END

*D_NET *123 0.228813
*CONN
*P io_out[25] O
*I *537:rf_dac_q_out[9] O *D phase_099_top_integration
*CAP
1 io_out[25] 0.0838767
2 *537:rf_dac_q_out[9] 1.22321e-05
3 *123:9 0.0838767
4 *123:7 0.0305173
5 *123:5 0.0305296
6 *122:7 *123:7 0
*RES
1 *537:rf_dac_q_out[9] *123:5 0.225 
2 *123:5 *123:7 552.435 
3 *123:7 *123:9 0.5 
4 *123:9 io_out[25] 207.128 
*END

*D_NET *124 0.197886
*CONN
*P io_out[26] O
*I *537:rf_dac_q_out[10] O *D phase_099_top_integration
*CAP
1 io_out[26] 0.0783657
2 *537:rf_dac_q_out[10] 1.2842e-05
3 *124:9 0.0783657
4 *124:7 0.0204518
5 *124:5 0.0204646
6 *124:7 *272:9 0.000224985
*RES
1 *537:rf_dac_q_out[10] *124:5 0.225 
2 *124:5 *124:7 356.595 
3 *124:7 *124:9 0.5 
4 *124:9 io_out[26] 206.312 
*END

*D_NET *125 0.184359
*CONN
*P io_out[27] O
*I *537:rf_dac_q_out[11] O *D phase_099_top_integration
*CAP
1 io_out[27] 0.0831078
2 *537:rf_dac_q_out[11] 1.22321e-05
3 *125:9 0.0831078
4 *125:7 0.00896056
5 *125:5 0.00897279
6 *125:7 *126:9 0.000198171
7 *125:7 *318:9 0
*RES
1 *537:rf_dac_q_out[11] *125:5 0.225 
2 *125:5 *125:7 161.265 
3 *125:7 *125:9 0.5 
4 *125:9 io_out[27] 205.089 
*END

*D_NET *126 0.248038
*CONN
*P io_out[28] O
*I *537:rf_dac_q_out[12] O *D phase_099_top_integration
*CAP
1 io_out[28] 0.0418844
2 *537:rf_dac_q_out[12] 0.000481444
3 *126:17 0.0426366
4 *126:11 0.0154616
5 *126:9 0.0151909
6 *126:11 *272:11 0.0216972
7 *126:11 *277:11 0.0124725
8 *126:11 *279:11 0.0397203
9 *126:11 *289:11 0.00370969
10 *126:11 *290:11 5.30665e-05
11 *126:11 *291:11 0.00775271
12 *126:11 *317:17 0.000803161
13 *126:11 *333:11 0.00894267
14 *126:11 *363:17 0.00278053
15 *126:11 *363:19 0.00102038
16 *126:17 *277:15 0.00368993
17 *126:17 *286:15 0.00108708
18 *126:17 *333:25 0.00110243
19 *537:rf_adc_i_in[3] *126:11 0.00441597
20 *537:rf_adc_i_in[4] *126:11 0.00248963
21 *537:rf_adc_i_in[6] *126:11 0.00718145
22 *537:rf_adc_i_in[9] *126:11 0.000703989
23 *30:21 *126:11 0.00429606
24 *37:13 *126:17 0.000708904
25 *41:21 *126:11 0.00327017
26 *52:21 *126:11 0.00428682
27 *125:7 *126:9 0.000198171
*RES
1 *537:rf_dac_q_out[12] *126:9 8.495 
2 *126:9 *126:11 95.8284 
3 *126:11 *126:17 42.415 
4 *126:17 io_out[28] 109.473 
*END

*D_NET *127 0.245687
*CONN
*P io_out[29] O
*I *537:rf_dac_q_out[13] O *D phase_099_top_integration
*CAP
1 io_out[29] 0.0398636
2 *537:rf_dac_q_out[13] 0.000863006
3 *127:22 0.0398636
4 *127:20 0.0124607
5 *127:18 0.0124607
6 *127:16 0.0224071
7 *127:14 0.0232701
8 *127:14 *312:9 0.0010999
9 *127:14 *340:6 0.00198675
10 *127:16 *130:8 0.00073034
11 *127:16 *130:10 0.0666638
12 *127:16 *308:21 0
13 *127:16 *325:18 0.0240172
14 *127:16 *333:25 0
*RES
1 *537:rf_dac_q_out[13] *127:14 5.18853 
2 *127:14 *127:16 104.772 
3 *127:16 *127:18 0.5 
4 *127:18 *127:20 226.545 
5 *127:20 *127:22 0.5 
6 *127:22 io_out[29] 98.1692 
*END

*D_NET *128 0.202128
*CONN
*P io_out[2] O
*I *537:rf_dac_i_out[2] O *D phase_099_top_integration
*CAP
1 io_out[2] 0.0283457
2 *537:rf_dac_i_out[2] 0.013453
3 *128:11 0.0283457
4 *128:9 0.0592653
5 *128:7 0.0727183
6 *128:7 *142:11 0
*RES
1 *537:rf_dac_i_out[2] *128:7 34.5467 
2 *128:7 *128:9 161.107 
3 *128:9 *128:11 0.5 
4 *128:11 io_out[2] 74.7169 
*END

*D_NET *129 0.240626
*CONN
*P io_out[30] O
*I *537:rf_dac_q_out[14] O *D phase_099_top_integration
*CAP
1 io_out[30] 0.0353562
2 *537:rf_dac_q_out[14] 0.000759779
3 *129:19 0.0353562
4 *129:17 0.0240016
5 *129:15 0.0240016
6 *129:13 0.0262037
7 *129:11 0.0269634
8 *129:11 *274:9 8.79728e-05
9 *129:13 *132:13 0.0254152
10 *129:13 *323:13 0.0289
11 *121:11 *129:13 0.0135808
12 *122:7 *129:11 0
*RES
1 *537:rf_dac_q_out[14] *129:11 12.5 
2 *129:11 *129:13 114.998 
3 *129:13 *129:15 0.5 
4 *129:15 *129:17 436.155 
5 *129:17 *129:19 0.5 
6 *129:19 io_out[30] 92.9252 
*END

*D_NET *130 0.283784
*CONN
*P io_out[31] O
*I *537:rf_dac_q_out[15] O *D phase_099_top_integration
*CAP
1 io_out[31] 0.00118161
2 *537:rf_dac_q_out[15] 0.00163899
3 *130:14 0.0351782
4 *130:12 0.0339966
5 *130:10 0.0589352
6 *130:8 0.0605742
7 *130:8 *325:18 0.00103128
8 *130:8 *338:18 0.00138891
9 *130:10 *299:17 0.0103998
10 *130:10 *325:16 0.00252179
11 *130:10 *333:25 0
12 *130:10 *338:16 0.000673585
13 *130:10 *340:6 0.000798042
14 *130:10 *344:19 0
15 *537:rf_adc_i_in[7] *130:10 0.000800964
16 *66:13 *130:10 0.000403352
17 *67:17 *130:8 0.00576175
18 *67:17 *130:10 0.00110588
19 *127:16 *130:8 0.00073034
20 *127:16 *130:10 0.0666638
*RES
1 *537:rf_dac_q_out[15] *130:8 9.48827 
2 *130:8 *130:10 197.125 
3 *130:10 *130:12 0.5 
4 *130:12 *130:14 618.225 
5 *130:14 io_out[31] 3.4032 
*END

*D_NET *131 0.33449
*CONN
*P io_out[32] O
*I *537:chip_ready_out O *D phase_099_top_integration
*CAP
1 io_out[32] 0.0054249
2 *537:chip_ready_out 0.000729885
3 *131:13 0.109935
4 *131:11 0.104511
5 *131:9 0.0174964
6 *131:7 0.0182263
7 *131:7 *282:7 9.54275e-05
8 *131:7 *364:7 0
9 *131:9 la_data_out[81] 0.00820691
10 *131:9 *304:15 0.00881946
11 *131:9 *312:13 0.00549729
12 *131:9 *318:23 0.00549729
13 *131:9 *321:22 0.00763735
14 *131:9 *323:25 0.00787201
15 *131:9 *325:22 0.00787201
16 *131:9 *337:9 0.00549729
17 *131:9 *338:30 0.014138
18 *131:9 *364:9 0.00549729
19 *131:13 *281:35 0
20 *131:13 *286:37 0
21 *131:13 *316:19 0
22 *131:13 *318:29 0.000297837
23 *537:rf_adc_q_in[14] *131:13 0.000160955
24 *78:23 *131:13 0
25 *80:25 *131:13 0
26 *93:13 io_out[32] 0.00107775
*RES
1 *537:chip_ready_out *131:7 1.9174 
2 *131:7 *131:9 64.2935 
3 *131:9 *131:11 0.5 
4 *131:11 *131:13 260.14 
5 *131:13 io_out[32] 15.7858 
*END

*D_NET *132 0.475639
*CONN
*P io_out[33] O
*P la_data_out[0] O
*P wbs_dat_o[0] O
*I *537:module_status_flags_out[0] O *D phase_099_top_integration
*CAP
1 io_out[33] 0.00254728
2 la_data_out[0] 0.000225936
3 wbs_dat_o[0] 0.000526714
4 *537:module_status_flags_out[0] 0.000677619
5 *132:49 0.00903347
6 *132:47 0.00892349
7 *132:43 0.0106918
8 *132:27 0.0522759
9 *132:25 0.0438654
10 *132:21 0.0234123
11 *132:19 0.0232675
12 *132:17 0.056108
13 *132:15 0.056108
14 *132:13 0.0314168
15 *132:11 0.0320944
16 *132:13 *136:11 0
17 *132:13 *272:11 0
18 *132:13 *286:11 0.0186689
19 *132:13 *289:11 0.00228872
20 *132:13 *290:11 0.000987405
21 *132:13 *323:13 0.0220313
22 *132:13 *329:11 0.00480524
23 *132:43 *133:45 0
24 *132:43 *133:47 0.027684
25 *132:43 *134:37 0
26 *132:43 *273:29 0.00680746
27 *132:49 wbs_dat_o[20] 0.00148425
28 *132:49 *273:29 0.00532275
29 *132:49 *274:23 0
30 *537:rf_adc_i_in[4] *132:13 0.00084867
31 *537:rf_adc_i_in[5] *132:13 0.00578998
32 *31:13 *132:13 0.00177254
33 *34:9 *132:11 0.000427928
34 *93:13 io_out[33] 0.000129811
35 *121:11 *132:13 0
36 *129:13 *132:13 0.0254152
*RES
1 *537:module_status_flags_out[0] *132:11 12.35 
2 *132:11 *132:13 133.352 
3 *132:13 *132:15 0.5 
4 *132:15 *132:17 1021.12 
5 *132:17 *132:19 0.5 
6 *132:19 *132:21 57.3141 
7 *132:21 *132:25 3.0275 
8 *132:25 *132:27 748.912 
9 *132:27 wbs_dat_o[0] 9.5625 
10 *132:27 *132:43 49.4997 
11 *132:43 *132:47 3.7625 
12 *132:47 *132:49 150.525 
13 *132:49 la_data_out[0] 6.005 
14 *132:25 io_out[33] 36.145 
*END

*D_NET *133 0.359384
*CONN
*P la_data_out[1] O
*P wbs_dat_o[1] O
*P io_out[34] O
*I *537:module_status_flags_out[1] O *D phase_099_top_integration
*CAP
1 la_data_out[1] 0.000363304
2 wbs_dat_o[1] 0.000621815
3 io_out[34] 0.00367535
4 *537:module_status_flags_out[1] 8.49526e-05
5 *133:47 0.00962925
6 *133:45 0.011099
7 *133:27 0.0327564
8 *133:25 0.0303016
9 *133:17 0.00405846
10 *133:13 0.0730198
11 *133:11 0.0726367
12 *133:9 0.0120592
13 *133:7 0.0121442
14 *133:9 la_data_out[54] 0.011753
15 *133:13 *299:111 0.00176831
16 *133:45 *134:37 0.00092524
17 *133:47 *134:27 0.000188098
18 *133:47 *134:37 0.00058681
19 *133:47 *135:27 0.00124145
20 *133:47 *136:35 0.0353053
21 *133:47 *272:27 0.00116638
22 *133:47 *273:29 0.00781711
23 *133:47 *274:23 0.00760882
24 *133:47 *276:23 0.000889047
25 *85:13 *133:27 0
26 *132:43 *133:45 0
27 *132:43 *133:47 0.027684
*RES
1 *537:module_status_flags_out[1] *133:7 1.35 
2 *133:7 *133:9 308.145 
3 *133:9 *133:11 0.5 
4 *133:11 *133:13 191.124 
5 *133:13 *133:17 1.06527 
6 *133:17 io_out[34] 9.42907 
7 *133:17 *133:25 0.5 
8 *133:25 *133:27 550.905 
9 *133:27 wbs_dat_o[1] 11.2275 
10 *133:27 *133:45 9.64127 
11 *133:45 *133:47 68.7344 
12 *133:47 la_data_out[1] 6.6725 
*END

*D_NET *134 0.339797
*CONN
*P io_out[35] O
*P wbs_dat_o[2] O
*P la_data_out[2] O
*I *537:module_status_flags_out[2] O *D phase_099_top_integration
*CAP
1 io_out[35] 0.00516081
2 wbs_dat_o[2] 0.000619708
3 la_data_out[2] 0.000507172
4 *537:module_status_flags_out[2] 8.49526e-05
5 *134:51 0.0238765
6 *134:49 0.0196115
7 *134:37 0.00405734
8 *134:27 0.00996388
9 *134:25 0.00742199
10 *134:17 0.00197366
11 *134:13 0.046571
12 *134:11 0.0451046
13 *134:9 0.0461029
14 *134:7 0.0461879
15 *134:13 *278:13 0
16 *134:13 *464:9 0
17 *134:27 wbs_dat_o[10] 0.00667314
18 *134:27 wbs_dat_o[13] 0.00427073
19 *134:27 wbs_dat_o[16] 0.00352068
20 *134:27 *135:27 0.0413447
21 *134:27 *135:37 0.000245811
22 *134:27 *136:43 0.000922476
23 *134:27 *278:23 0.0172349
24 *134:27 *322:35 0.000337951
25 *134:27 *333:37 0.00038959
26 *134:27 *344:29 0.000911908
27 *134:27 *355:41 0.000550844
28 *134:37 *135:37 0.00397981
29 *90:11 *134:13 0.000470753
30 *132:43 *134:37 0
31 *133:45 *134:37 0.00092524
32 *133:47 *134:27 0.000188098
33 *133:47 *134:37 0.00058681
*RES
1 *537:module_status_flags_out[2] *134:7 1.35 
2 *134:7 *134:9 835.995 
3 *134:9 *134:11 0.5 
4 *134:11 *134:13 117.853 
5 *134:13 *134:17 24.575 
6 *134:17 la_data_out[2] 8.2125 
7 *134:17 *134:25 0.5 
8 *134:25 *134:27 62.2959 
9 *134:27 *134:37 10.9335 
10 *134:37 wbs_dat_o[2] 11.0625 
11 *134:37 *134:49 15.975 
12 *134:49 *134:51 340.155 
13 *134:51 io_out[35] 13.0172 
*END

*D_NET *135 0.4914
*CONN
*P wbs_dat_o[3] O
*P io_out[36] O
*P la_data_out[3] O
*I *537:module_status_flags_out[3] O *D phase_099_top_integration
*CAP
1 wbs_dat_o[3] 0.000598523
2 io_out[36] 0.00589476
3 la_data_out[3] 0.000591197
4 *537:module_status_flags_out[3] 0.000326027
5 *135:39 0.017858
6 *135:37 0.0141024
7 *135:27 0.00888454
8 *135:25 0.00734391
9 *135:15 0.0977616
10 *135:13 0.0971704
11 *135:11 0.0130975
12 *135:9 0.0134236
13 la_data_out[3] *205:7 0
14 *135:11 *136:11 0.0704143
15 *135:11 *308:11 0.0424888
16 *135:11 *317:19 0.00424391
17 *135:11 *322:27 0.00595191
18 *135:11 *326:11 0.00503818
19 *135:15 *205:7 0
20 *135:27 wbs_dat_o[12] 0.0024868
21 *135:27 *136:35 0.00714052
22 *135:27 *276:23 0.0247505
23 *135:27 *278:23 0.000752752
24 *135:37 *136:43 0.00345775
25 *135:37 *136:47 0.000286876
26 *135:37 *322:35 0.000523866
27 *537:rf_adc_i_in[9] *135:9 0
28 *133:47 *135:27 0.00124145
29 *134:27 *135:27 0.0413447
30 *134:27 *135:37 0.000245811
31 *134:37 *135:37 0.00397981
*RES
1 *537:module_status_flags_out[3] *135:9 5.255 
2 *135:9 *135:11 107.19 
3 *135:11 *135:13 0.5 
4 *135:13 *135:15 1764.7 
5 *135:15 la_data_out[3] 9.1875 
6 *135:15 *135:25 0.5 
7 *135:25 *135:27 63.4321 
8 *135:27 *135:37 11.9569 
9 *135:37 *135:39 208.695 
10 *135:39 io_out[36] 15.6392 
11 *135:37 wbs_dat_o[3] 10.1925 
*END

*D_NET *136 0.517828
*CONN
*P wbs_dat_o[4] O
*P io_out[37] O
*P la_data_out[4] O
*I *537:module_status_flags_out[4] O *D phase_099_top_integration
*CAP
1 wbs_dat_o[4] 0.000592742
2 io_out[37] 0.000832269
3 la_data_out[4] 0.000511617
4 *537:module_status_flags_out[4] 0.000435437
5 *136:53 0.00629142
6 *136:51 0.00545916
7 *136:49 0.00352372
8 *136:47 0.00366125
9 *136:43 0.00364978
10 *136:35 0.00883062
11 *136:33 0.00597402
12 *136:27 0.00120939
13 *136:25 0.00114648
14 *136:15 0.0977598
15 *136:13 0.0972482
16 *136:11 0.0195946
17 *136:9 0.02003
18 *136:11 *272:11 0.0699949
19 *136:11 *281:11 0.00261748
20 *136:11 *326:11 0.0109856
21 *136:27 *275:29 0.00602007
22 *136:27 *276:23 0.00109842
23 *136:27 *282:39 0.00202633
24 *136:35 wbs_dat_o[12] 0.00249294
25 *136:35 *272:27 0.00466139
26 *136:35 *276:23 0.0203541
27 *136:43 *322:35 0.000751232
28 *136:43 *344:29 0.00058005
29 *136:43 *355:41 0.000482695
30 *537:rf_adc_i_in[6] *136:11 0
31 *31:13 *136:11 0
32 *41:21 *136:11 0.000742415
33 *52:21 *136:11 0.000742415
34 *132:13 *136:11 0
35 *133:47 *136:35 0.0353053
36 *134:27 *136:43 0.000922476
37 *135:11 *136:11 0.0704143
38 *135:27 *136:35 0.00714052
39 *135:37 *136:43 0.00345775
40 *135:37 *136:47 0.000286876
*RES
1 *537:module_status_flags_out[4] *136:9 6.455 
2 *136:9 *136:11 133.003 
3 *136:11 *136:13 0.5 
4 *136:13 *136:15 1765.6 
5 *136:15 la_data_out[4] 8.115 
6 *136:15 *136:25 2 
7 *136:25 *136:27 54.615 
8 *136:27 *136:33 3.2425 
9 *136:33 *136:35 52.4197 
10 *136:35 *136:43 14.3853 
11 *136:43 *136:47 0.945867 
12 *136:47 *136:49 61.1775 
13 *136:49 *136:51 2 
14 *136:51 *136:53 93.255 
15 *136:53 io_out[37] 4.7617 
16 *136:43 wbs_dat_o[4] 10.7525 
*END

*D_NET *137 0.180007
*CONN
*P io_out[3] O
*I *537:rf_dac_i_out[3] O *D phase_099_top_integration
*CAP
1 io_out[3] 0.0250066
2 *537:rf_dac_i_out[3] 0.0166553
3 *137:11 0.0250066
4 *137:9 0.0483415
5 *137:7 0.0649968
*RES
1 *537:rf_dac_i_out[3] *137:7 43.2867 
2 *137:7 *137:9 131.564 
3 *137:9 *137:11 0.5 
4 *137:11 io_out[3] 65.9769 
*END

*D_NET *138 0.158512
*CONN
*P io_out[4] O
*I *537:rf_dac_i_out[4] O *D phase_099_top_integration
*CAP
1 io_out[4] 0.0377289
2 *537:rf_dac_i_out[4] 0.00373497
3 *138:11 0.0377289
4 *138:9 0.0375459
5 *138:7 0.0412808
6 *138:7 *140:15 0
7 *138:7 *347:7 0.000492601
8 *106:9 *138:9 0
*RES
1 *537:rf_dac_i_out[4] *138:7 10.0747 
2 *138:7 *138:9 102.02 
3 *138:9 *138:11 0.5 
4 *138:11 io_out[4] 99.1889 
*END

*D_NET *139 0.146507
*CONN
*P io_out[5] O
*I *537:rf_dac_i_out[5] O *D phase_099_top_integration
*CAP
1 io_out[5] 0.035991
2 *537:rf_dac_i_out[5] 0.0084516
3 *139:11 0.035991
4 *139:9 0.0288107
5 *139:7 0.0372623
6 *139:7 *140:15 0
*RES
1 *537:rf_dac_i_out[5] *139:7 20.5627 
2 *139:7 *139:9 78.0748 
3 *139:9 *139:11 0.5 
4 *139:11 io_out[5] 88.7009 
*END

*D_NET *140 0.128684
*CONN
*P io_out[6] O
*I *537:rf_dac_i_out[6] O *D phase_099_top_integration
*CAP
1 io_out[6] 0.0391865
2 *537:rf_dac_i_out[6] 0.00584716
3 *140:19 0.0391865
4 *140:17 0.0192511
5 *140:15 0.0250983
6 *140:15 *314:15 0.000114852
7 *140:15 *338:30 0
8 *138:7 *140:15 0
9 *139:7 *140:15 0
*RES
1 *537:rf_dac_i_out[6] *140:15 15.2091 
2 *140:15 *140:17 52.3209 
3 *140:17 *140:19 0.5 
4 *140:19 io_out[6] 96.5086 
*END

*D_NET *141 0.10329
*CONN
*P io_out[7] O
*I *537:rf_dac_i_out[7] O *D phase_099_top_integration
*CAP
1 io_out[7] 0.0354539
2 *537:rf_dac_i_out[7] 0.0151765
3 *141:11 0.0506304
4 *103:13 *141:11 0.00202873
*RES
1 *537:rf_dac_i_out[7] *141:11 40.2173 
2 *141:11 io_out[7] 93.0126 
*END

*D_NET *142 0.0895986
*CONN
*P io_out[8] O
*I *537:rf_dac_i_out[8] O *D phase_099_top_integration
*CAP
1 io_out[8] 0.0366804
2 *537:rf_dac_i_out[8] 0.00782678
3 *142:11 0.0445072
4 *66:5 *142:11 0.000584237
5 *128:7 *142:11 0
*RES
1 *537:rf_dac_i_out[8] *142:11 21.3034 
2 *142:11 io_out[8] 96.5086 
*END

*D_NET *143 0.107042
*CONN
*P io_out[9] O
*I *537:rf_dac_i_out[9] O *D phase_099_top_integration
*CAP
1 io_out[9] 0.032704
2 *537:rf_dac_i_out[9] 0.00738367
3 *143:11 0.0444356
4 *143:7 0.0191153
5 *107:5 *143:7 0.00340339
*RES
1 *537:rf_dac_i_out[9] *143:7 23.243 
2 *143:7 *143:11 32.3212 
3 *143:11 io_out[9] 86.0206 
*END

*D_NET *144 0.390751
*CONN
*P la_data_out[98] O
*P la_data_in[0] I
*I *537:rst_n I *D phase_099_top_integration
*CAP
1 la_data_out[98] 0.000490353
2 la_data_in[0] 0.00344471
3 *537:rst_n 7.73075e-05
4 *144:39 0.0205404
5 *144:37 0.0202373
6 *144:21 0.0488968
7 *144:19 0.0488195
8 *144:17 0.0057963
9 *144:15 0.00905368
10 *144:15 *183:9 0.00438962
11 *144:15 *260:15 2.99518e-06
12 *144:15 *273:29 0.0119583
13 *144:15 *280:33 0
14 *144:17 la_data_out[17] 0.000250798
15 *144:17 *155:9 0.00565679
16 *144:17 *216:17 0.017735
17 *144:17 *238:17 0.00168939
18 *144:17 *260:17 0.000907682
19 *144:17 *260:25 0.00330478
20 *144:17 *275:29 0
21 *144:17 *278:23 0.000533786
22 *144:17 *279:43 0.00136524
23 *144:17 *279:45 0.0110998
24 *144:17 *282:31 0.00180202
25 *144:17 *282:39 0.000810135
26 *144:21 *289:23 0
27 *144:21 *296:115 0.00133196
28 *144:21 *299:177 0.000747724
29 *144:37 la_data_out[27] 0
30 *144:37 *260:25 5.81471e-05
31 *144:39 *155:9 0.0620475
32 *144:39 *166:9 0.107703
33 *103:5 *144:15 0
*RES
1 la_data_in[0] *144:15 29.5093 
2 *144:15 *144:17 254.025 
3 *144:17 *144:19 2 
4 *144:19 *144:21 859.583 
5 *144:21 *537:rst_n 1.35 
6 *144:17 *144:37 5.8375 
7 *144:37 *144:39 159.922 
8 *144:39 la_data_out[98] 7.6925 
*END

*D_NET *155 0.255928
*CONN
*P la_data_out[108] O
*P la_data_in[10] I
*CAP
1 la_data_out[108] 0.000541663
2 la_data_in[10] 0.000525192
3 *155:9 0.0342434
4 *155:7 0.034227
5 *155:7 la_data_out[10] 0
6 *155:7 *272:15 0
7 *155:9 *166:9 0.0107802
8 *155:9 *192:9 0.0700161
9 *155:9 *216:17 0.00406415
10 *155:9 *238:17 0.00170677
11 *155:9 *249:15 0.0153618
12 *155:9 *249:17 0.00120293
13 *155:9 *278:21 0.000199131
14 *155:9 *278:23 0.00959593
15 *155:9 *279:43 0.000109729
16 *155:9 *287:29 0.00564993
17 *144:17 *155:9 0.00565679
18 *144:39 *155:9 0.0620475
*RES
1 la_data_in[10] *155:7 8.7125 
2 *155:7 *155:9 220.927 
3 *155:9 la_data_out[108] 8.7125 
*END

*D_NET *166 0.325857
*CONN
*P la_data_out[109] O
*P la_data_in[11] I
*CAP
1 la_data_out[109] 0.000448889
2 la_data_in[11] 0.00041344
3 *166:9 0.0261316
4 *166:7 0.0260962
5 *166:9 *175:9 0.000411089
6 *166:9 *177:9 0.000668691
7 *166:9 *178:9 0.00346076
8 *166:9 *182:9 0.136632
9 *166:9 *192:9 0.000342997
10 *166:9 *216:15 0.00120255
11 *166:9 *238:15 0.000294569
12 *166:9 *249:15 0.00488832
13 *166:9 *274:23 0.000304175
14 *166:9 *275:29 0.000768309
15 *166:9 *276:21 0.000279014
16 *166:9 *276:23 0.00503025
17 *144:39 *166:9 0.107703
18 *155:9 *166:9 0.0107802
*RES
1 la_data_in[11] *166:7 7.1825 
2 *166:7 *166:9 220.869 
3 *166:9 la_data_out[109] 7.1825 
*END

*D_NET *175 0.433484
*CONN
*P la_data_out[110] O
*P la_data_in[12] I
*CAP
1 la_data_out[110] 0.00030725
2 la_data_in[12] 0.000276432
3 *175:9 0.0365232
4 *175:7 0.0364924
5 *175:9 *176:15 0.00147193
6 *175:9 *176:17 0.0287291
7 *175:9 *177:9 0.145733
8 *175:9 *179:9 0.0322878
9 *175:9 *180:15 0.00357289
10 *175:9 *180:17 0.0282222
11 *175:9 *181:9 0.0310945
12 *175:9 *183:9 0.0398548
13 *175:9 *184:9 0.00379556
14 *175:9 *216:15 0.00172499
15 *175:9 *271:17 0.0429863
16 *166:9 *175:9 0.000411089
*RES
1 la_data_in[12] *175:7 5.1425 
2 *175:7 *175:9 220.927 
3 *175:9 la_data_out[110] 5.1425 
*END

*D_NET *176 0.348742
*CONN
*P la_data_out[111] O
*P la_data_in[13] I
*CAP
1 la_data_out[111] 0.00029476
2 la_data_in[13] 0.000596796
3 *176:17 0.0206485
4 *176:15 0.0209506
5 *176:15 *177:7 3.91137e-05
6 *176:15 *183:9 0.000613704
7 *176:17 *177:9 0.00153888
8 *176:17 *179:9 0.00175975
9 *176:17 *180:17 0.135064
10 *176:17 *181:9 0.137035
11 *175:9 *176:15 0.00147193
12 *175:9 *176:17 0.0287291
*RES
1 la_data_in[13] *176:15 9.81387 
2 *176:15 *176:17 1295.23 
3 *176:17 la_data_out[111] 6.515 
*END

*D_NET *177 0.344106
*CONN
*P la_data_out[112] O
*P la_data_in[14] I
*CAP
1 la_data_out[112] 0.000335687
2 la_data_in[14] 0.000299857
3 *177:9 0.024011
4 *177:7 0.0239752
5 *177:9 *178:9 0.147214
6 *177:9 *181:9 0.000290025
7 *177:9 *184:9 0
8 *166:9 *177:9 0.000668691
9 *175:9 *177:9 0.145733
10 *176:15 *177:7 3.91137e-05
11 *176:17 *177:9 0.00153888
*RES
1 la_data_in[14] *177:7 5.6525 
2 *177:7 *177:9 220.927 
3 *177:9 la_data_out[112] 5.6525 
*END

*D_NET *178 0.341777
*CONN
*P la_data_out[113] O
*P la_data_in[15] I
*CAP
1 la_data_out[113] 0.000358629
2 la_data_in[15] 0.000342708
3 *178:9 0.0238515
4 *178:7 0.0238356
5 *178:9 *182:9 0.142714
6 *178:9 *184:9 0
7 *166:9 *178:9 0.00346076
8 *177:9 *178:9 0.147214
*RES
1 la_data_in[15] *178:7 6.1625 
2 *178:7 *178:9 220.927 
3 *178:9 la_data_out[113] 6.1625 
*END

*D_NET *179 0.341401
*CONN
*P la_data_out[114] O
*P la_data_in[16] I
*CAP
1 la_data_out[114] 0.000252963
2 la_data_in[16] 0.000233524
3 *179:9 0.0243925
4 *179:7 0.0243731
5 *179:9 *180:15 0.000743501
6 *179:9 *181:9 0.141416
7 *179:9 *184:9 0.000379326
8 *179:9 *271:17 0.115563
9 *175:9 *179:9 0.0322878
10 *176:17 *179:9 0.00175975
*RES
1 la_data_in[16] *179:7 6.005 
2 *179:7 *179:9 1308 
3 *179:9 la_data_out[114] 6.005 
*END

*D_NET *180 0.268984
*CONN
*P la_data_out[115] O
*P la_data_in[17] I
*CAP
1 la_data_out[115] 0.000299659
2 la_data_in[17] 0.00139769
3 *180:17 0.0466837
4 *180:15 0.0477818
5 *180:15 *181:9 0.000219672
6 *180:15 *183:9 0.00148011
7 *180:15 *281:41 1.62899e-05
8 *180:17 *181:9 0.00350203
9 *175:9 *180:15 0.00357289
10 *175:9 *180:17 0.0282222
11 *176:17 *180:17 0.135064
12 *179:9 *180:15 0.000743501
*RES
1 la_data_in[17] *180:15 13.2153 
2 *180:15 *180:17 1276.6 
3 *180:17 la_data_out[115] 6.77 
*END

*D_NET *181 0.353063
*CONN
*P la_data_out[116] O
*P la_data_in[18] I
*CAP
1 la_data_out[116] 0.000267008
2 la_data_in[18] 0.000263336
3 *181:9 0.0194894
4 *181:7 0.0194857
5 *181:7 *280:21 0
6 *175:9 *181:9 0.0310945
7 *176:17 *181:9 0.137035
8 *177:9 *181:9 0.000290025
9 *179:9 *181:9 0.141416
10 *180:15 *181:9 0.000219672
11 *180:17 *181:9 0.00350203
*RES
1 la_data_in[18] *181:7 6.26 
2 *181:7 *181:9 1307.66 
3 *181:9 la_data_out[116] 6.26 
*END

*D_NET *182 0.334105
*CONN
*P la_data_out[117] O
*P la_data_in[19] I
*CAP
1 la_data_out[117] 0.000380147
2 la_data_in[19] 0.000398494
3 *182:9 0.0269808
4 *182:7 0.0269991
5 *182:9 *184:9 0
6 *182:9 *192:9 0
7 *166:9 *182:9 0.136632
8 *178:9 *182:9 0.142714
*RES
1 la_data_in[19] *182:7 6.6725 
2 *182:7 *182:9 220.927 
3 *182:9 la_data_out[117] 6.6725 
*END

*D_NET *183 0.247924
*CONN
*P la_data_out[99] O
*P la_data_in[1] I
*CAP
1 la_data_out[99] 0.000176398
2 la_data_in[1] 0.000147254
3 *183:9 0.0377243
4 *183:7 0.0376952
5 *183:9 *184:9 0.119989
6 *183:9 *216:15 0.000196621
7 *183:9 *260:15 0.00108816
8 *183:9 *271:15 0.00375299
9 *183:9 *273:29 0.000815367
10 *183:9 *280:33 0
11 *144:15 *183:9 0.00438962
12 *175:9 *183:9 0.0398548
13 *176:15 *183:9 0.000613704
14 *180:15 *183:9 0.00148011
*RES
1 la_data_in[1] *183:7 3.1025 
2 *183:7 *183:9 220.927 
3 *183:9 la_data_out[99] 3.1025 
*END

*D_NET *184 0.326736
*CONN
*P la_data_out[118] O
*P la_data_in[20] I
*CAP
1 la_data_out[118] 0.00014183
2 la_data_in[20] 0.000125441
3 *184:9 0.0272945
4 *184:7 0.0272781
5 *184:9 *185:9 0.14726
6 *184:9 *271:15 0.000471728
7 *175:9 *184:9 0.00379556
8 *177:9 *184:9 0
9 *178:9 *184:9 0
10 *179:9 *184:9 0.000379326
11 *182:9 *184:9 0
12 *183:9 *184:9 0.119989
*RES
1 la_data_in[20] *184:7 2.5925 
2 *184:7 *184:9 220.869 
3 *184:9 la_data_out[118] 2.5925 
*END

*D_NET *185 0.342102
*CONN
*P la_data_out[119] O
*P la_data_in[21] I
*CAP
1 la_data_out[119] 0.000107262
2 la_data_in[21] 9.42996e-05
3 *185:9 0.023378
4 *185:7 0.0233651
5 *185:9 *186:9 0.147256
6 *185:9 *271:15 0.000642109
7 *184:9 *185:9 0.14726
*RES
1 la_data_in[21] *185:7 2.0825 
2 *185:7 *185:9 220.927 
3 *185:9 la_data_out[119] 2.0825 
*END

*D_NET *186 0.342271
*CONN
*P la_data_out[120] O
*P la_data_in[22] I
*CAP
1 la_data_out[120] 7.26942e-05
2 la_data_in[22] 6.62082e-05
3 *186:9 0.023349
4 *186:7 0.0233425
5 *186:9 *187:11 0.147375
6 *186:9 *271:15 0.000810288
7 *185:9 *186:9 0.147256
*RES
1 la_data_in[22] *186:7 1.5725 
2 *186:7 *186:9 220.927 
3 *186:9 la_data_out[120] 1.5725 
*END

*D_NET *187 0.342116
*CONN
*P la_data_out[121] O
*P la_data_in[23] I
*CAP
1 la_data_out[121] 9.93012e-05
2 la_data_in[23] 8.25826e-05
3 *187:11 0.0229364
4 *187:9 0.0229196
5 *187:11 *188:9 0.000827188
6 *187:11 *190:13 0.144567
7 *187:11 *271:15 0.00330854
8 *186:9 *187:11 0.147375
*RES
1 la_data_in[23] *187:9 1.8575 
2 *187:9 *187:11 221.16 
3 *187:11 la_data_out[121] 1.8575 
*END

*D_NET *188 0.261671
*CONN
*P la_data_out[122] O
*P la_data_in[24] I
*CAP
1 la_data_out[122] 0.000127731
2 la_data_in[24] 4.08978e-05
3 *188:9 0.0526722
4 *188:7 0.0525854
5 *188:9 *189:15 0.00151518
6 *188:9 *189:17 0.00641223
7 *188:9 *190:13 0.145867
8 *188:9 *271:15 0.00162372
9 *187:11 *188:9 0.000827188
*RES
1 la_data_in[24] *188:7 1.2425 
2 *188:7 *188:9 220.577 
3 *188:9 la_data_out[122] 1.9325 
*END

*D_NET *189 0.228022
*CONN
*P la_data_out[123] O
*P la_data_in[25] I
*CAP
1 la_data_out[123] 5.69322e-05
2 la_data_in[25] 0.000657402
3 *189:17 0.0517802
4 *189:15 0.0523806
5 *189:17 *190:13 0.000307066
6 *189:17 *191:11 0.114912
7 *188:9 *189:15 0.00151518
8 *188:9 *189:17 0.00641223
*RES
1 la_data_in[25] *189:15 6.91713 
2 *189:15 *189:17 1292.82 
3 *189:17 la_data_out[123] 2.975 
*END

*D_NET *190 0.338943
*CONN
*P la_data_out[124] O
*P la_data_in[26] I
*CAP
1 la_data_out[124] 4.08978e-05
2 la_data_in[26] 0.000138119
3 *190:13 0.023963
4 *190:11 0.0240602
5 *187:11 *190:13 0.144567
6 *188:9 *190:13 0.145867
7 *189:17 *190:13 0.000307066
*RES
1 la_data_in[26] *190:11 3.4925 
2 *190:11 *190:13 220.927 
3 *190:13 la_data_out[124] 1.2425 
*END

*D_NET *191 0.245235
*CONN
*P la_data_out[125] O
*P la_data_in[27] I
*CAP
1 la_data_out[125] 0.000562857
2 la_data_in[27] 9.70735e-05
3 *191:19 0.00575201
4 *191:17 0.00589189
5 *191:11 0.0377229
6 *191:9 0.0371172
7 *191:19 *193:9 0.00649827
8 *191:19 *260:25 0.00188334
9 *191:19 *271:27 0.00330904
10 *191:19 *295:53 0.0153259
11 *191:19 *296:227 0.0161621
12 *189:17 *191:11 0.114912
*RES
1 la_data_in[27] *191:9 2.975 
2 *191:9 *191:11 1038.9 
3 *191:11 *191:17 14.56 
4 *191:17 *191:19 269.895 
5 *191:19 la_data_out[125] 11.87 
*END

*D_NET *192 0.373768
*CONN
*P la_data_out[126] O
*P la_data_in[28] I
*CAP
1 la_data_out[126] 0.000513281
2 la_data_in[28] 0.000615653
3 *192:9 0.0355552
4 *192:7 0.0356575
5 *192:9 *193:9 0.142963
6 *192:9 *249:17 0.000804375
7 *192:9 *260:25 0.0290632
8 *192:9 *296:227 0.0582369
9 *155:9 *192:9 0.0700161
10 *166:9 *192:9 0.000342997
11 *182:9 *192:9 0
*RES
1 la_data_in[28] *192:7 9.7325 
2 *192:7 *192:9 220.927 
3 *192:9 la_data_out[126] 9.7325 
*END

*D_NET *193 0.396632
*CONN
*P la_data_out[127] O
*P la_data_in[29] I
*CAP
1 la_data_out[127] 0.000544784
2 la_data_in[29] 0.00065538
3 *193:9 0.0308568
4 *193:7 0.0309674
5 *193:9 *216:25 0.025224
6 *193:9 *238:25 0.0235496
7 *193:9 *249:17 0.112052
8 *193:9 *271:27 0.00123535
9 *193:9 *294:23 0.0122419
10 *193:9 *295:53 0.00984392
11 *191:19 *193:9 0.00649827
12 *192:9 *193:9 0.142963
*RES
1 la_data_in[29] *193:7 10.2425 
2 *193:7 *193:9 220.869 
3 *193:9 la_data_out[127] 10.2425 
*END

*D_NET *194 0.212816
*CONN
*P la_data_out[100] O
*P la_data_in[2] I
*CAP
1 la_data_out[100] 0.00125154
2 la_data_in[2] 0.00127539
3 *194:9 0.0510442
4 *194:7 0.0510681
5 *194:9 la_data_out[39] 0
6 *194:9 la_data_out[75] 0.0113266
7 *194:9 *227:9 0
8 *194:9 *324:13 0.00126352
9 *194:9 *343:15 0.00355211
10 *194:9 *348:15 0.00246359
11 *194:9 *350:13 0.0394847
12 *194:9 *354:13 0.00288697
13 *194:9 *356:13 0
14 io_oeb[37] *194:9 0
15 *74:9 *194:9 0.0401377
16 *82:9 *194:9 0.0070616
17 *83:9 *194:9 0
*RES
1 la_data_in[2] *194:7 20.4425 
2 *194:7 *194:9 220.927 
3 *194:9 la_data_out[100] 20.4425 
*END

*D_NET *205 0.281988
*CONN
*P la_data_out[101] O
*P la_data_in[3] I
*CAP
1 la_data_out[101] 0.000833443
2 la_data_in[3] 0.000963124
3 *205:17 0.0273209
4 *205:15 0.0284845
5 *205:9 0.018592
6 *205:7 0.0175581
7 *205:9 la_data_out[36] 0.00350879
8 *205:9 la_data_out[37] 0.00154503
9 *205:9 *227:9 0.0540243
10 *205:9 *284:31 0.0155074
11 *205:9 *288:31 0.00105632
12 *205:9 *293:29 0
13 *205:9 *324:13 0
14 *205:15 la_data_out[36] 0.000581275
15 *205:15 *227:17 0.00129797
16 *205:15 *324:13 0
17 *205:17 la_data_out[69] 0.016474
18 *205:17 la_data_out[78] 0
19 *205:17 *227:17 0.0820746
20 *205:17 *295:41 2.17773e-05
21 *205:17 *298:33 7.51246e-05
22 *205:17 *309:149 0.00795194
23 *205:17 *338:42 0.00195192
24 *205:17 *340:22 0.00143813
25 *205:17 *356:13 0
26 la_data_out[3] *205:7 0
27 *83:9 *205:9 0.000727368
28 *135:15 *205:7 0
*RES
1 la_data_in[3] *205:7 14.8325 
2 *205:7 *205:9 89.2734 
3 *205:9 *205:15 6.57653 
4 *205:15 *205:17 125.574 
5 *205:17 la_data_out[101] 12.7925 
*END

*D_NET *216 0.3463
*CONN
*P la_data_out[102] O
*P la_data_in[4] I
*CAP
1 la_data_out[102] 0.000686421
2 la_data_in[4] 0.00357814
3 *216:25 0.0163815
4 *216:23 0.0158291
5 *216:17 0.00325357
6 *216:15 0.00669764
7 *216:15 la_data_out[13] 0
8 *216:15 *238:15 0.00447167
9 *216:15 *273:29 0.0111678
10 *216:15 *276:23 0.000961697
11 *216:17 *238:17 0.0137348
12 *216:23 la_data_out[25] 0
13 *216:25 *238:25 0.111395
14 *216:25 *249:17 0.000930897
15 *216:25 *292:41 0.00738073
16 *216:25 *295:43 0.0683151
17 *216:25 *295:53 0.0313685
18 *144:17 *216:17 0.017735
19 *155:9 *216:17 0.00406415
20 *166:9 *216:15 0.00120255
21 *175:9 *216:15 0.00172499
22 *183:9 *216:15 0.000196621
23 *193:9 *216:25 0.025224
*RES
1 la_data_in[4] *216:15 31.9929 
2 *216:15 *216:17 160.875 
3 *216:17 *216:23 5.89 
4 *216:23 *216:25 1025.79 
5 *216:25 la_data_out[102] 12.125 
*END

*D_NET *227 0.330075
*CONN
*P la_data_out[103] O
*P la_data_in[5] I
*CAP
1 la_data_out[103] 0.00079444
2 la_data_in[5] 0.00097756
3 *227:17 0.0194225
4 *227:15 0.0188221
5 *227:9 0.0156007
6 *227:7 0.0163843
7 *227:7 *322:31 0
8 *227:9 la_data_out[39] 0.00299648
9 *227:9 *324:13 0
10 *227:17 la_data_out[36] 0.00188986
11 *227:17 *294:13 0.0315701
12 *227:17 *294:23 0.0603637
13 *227:17 *298:39 0.00599939
14 *227:17 *329:19 0.00456586
15 *227:17 *330:19 0.00451722
16 *83:9 *227:9 0.00877424
17 *194:9 *227:9 0
18 *205:9 *227:9 0.0540243
19 *205:15 *227:17 0.00129797
20 *205:17 *227:17 0.0820746
*RES
1 la_data_in[5] *227:7 15.3425 
2 *227:7 *227:9 80.3877 
3 *227:9 *227:15 4.165 
4 *227:15 *227:17 140.577 
5 *227:17 la_data_out[103] 12.2825 
*END

*D_NET *238 0.348532
*CONN
*P la_data_out[104] O
*P la_data_in[6] I
*CAP
1 la_data_out[104] 0.000660179
2 la_data_in[6] 0.00261258
3 *238:25 0.0165527
4 *238:23 0.0160251
5 *238:17 0.00331742
6 *238:15 0.00579749
7 *238:15 *274:23 0.00298337
8 *238:15 *276:23 0.00430265
9 *238:17 *249:15 0.00248891
10 *238:17 *260:17 0.011986
11 *238:23 la_data_out[22] 0
12 *238:25 *249:17 0.00164244
13 *238:25 *260:25 0.118206
14 *238:25 *271:27 0.000797011
15 *238:25 *285:29 0.000186986
16 *238:25 *285:31 0.00120791
17 *238:25 *287:29 0.00021124
18 *238:25 *292:41 0.00148674
19 *238:25 *295:53 0.00122536
20 *82:7 *238:23 0
21 *144:17 *238:17 0.00168939
22 *155:9 *238:17 0.00170677
23 *166:9 *238:15 0.000294569
24 *193:9 *238:25 0.0235496
25 *216:15 *238:15 0.00447167
26 *216:17 *238:17 0.0137348
27 *216:25 *238:25 0.111395
*RES
1 la_data_in[6] *238:15 22.8813 
2 *238:15 *238:17 150.525 
3 *238:17 *238:23 5.89 
4 *238:23 *238:25 1088.58 
5 *238:25 la_data_out[104] 11.87 
*END

*D_NET *249 0.356765
*CONN
*P la_data_out[105] O
*P la_data_in[7] I
*CAP
1 la_data_out[105] 0.000685384
2 la_data_in[7] 0.00477968
3 *249:17 0.0283449
4 *249:15 0.0324392
5 *249:15 la_data_out[20] 0
6 *249:15 *260:17 0.00414866
7 *249:15 *276:21 0.000300092
8 *249:15 *276:23 0.0110795
9 *249:15 *278:23 0.00258122
10 *249:15 *282:21 0
11 *249:17 *260:25 0.00145686
12 *249:17 *287:29 0.00771498
13 *249:17 *290:33 0.0119953
14 *249:17 *291:35 0.00270094
15 *249:17 *292:27 0.057075
16 *249:17 *292:41 0.00270087
17 *249:17 *293:29 0.00158249
18 *249:17 *294:23 0.0290551
19 *249:17 *295:43 0.0146127
20 *249:17 *331:23 0.00414063
21 *155:9 *249:15 0.0153618
22 *155:9 *249:17 0.00120293
23 *166:9 *249:15 0.00488832
24 *192:9 *249:17 0.000804375
25 *193:9 *249:17 0.112052
26 *216:25 *249:17 0.000930897
27 *238:17 *249:15 0.00248891
28 *238:25 *249:17 0.00164244
*RES
1 la_data_in[7] *249:15 41.495 
2 *249:15 *249:17 191.327 
3 *249:17 la_data_out[105] 10.7525 
*END

*D_NET *260 0.337221
*CONN
*P la_data_out[106] O
*P la_data_in[8] I
*CAP
1 la_data_out[106] 0.000631373
2 la_data_in[8] 0.000940651
3 *260:25 0.0202039
4 *260:23 0.0196871
5 *260:17 0.00412618
6 *260:15 0.0049523
7 *260:15 *273:29 0.00257894
8 *260:17 *275:29 0.00221144
9 *260:23 *281:41 5.18954e-05
10 *260:25 *271:27 0.000587391
11 *260:25 *282:31 0.00139373
12 *260:25 *285:31 0.00264886
13 *260:25 *287:29 0.00079424
14 *260:25 *296:227 0.103991
15 *105:5 *260:15 0.000316687
16 *144:15 *260:15 2.99518e-06
17 *144:17 *260:17 0.000907682
18 *144:17 *260:25 0.00330478
19 *144:37 *260:25 5.81471e-05
20 *183:9 *260:15 0.00108816
21 *191:19 *260:25 0.00188334
22 *192:9 *260:25 0.0290632
23 *238:17 *260:17 0.011986
24 *238:25 *260:25 0.118206
25 *249:15 *260:17 0.00414866
26 *249:17 *260:25 0.00145686
*RES
1 la_data_in[8] *260:15 14.7603 
2 *260:15 *260:17 128.79 
3 *260:17 *260:23 5.89 
4 *260:23 *260:25 1156.89 
5 *260:25 la_data_out[106] 11.615 
*END

*D_NET *271 0.289857
*CONN
*P la_data_out[107] O
*P la_data_in[9] I
*CAP
1 la_data_out[107] 0.000675623
2 la_data_in[9] 0.00788902
3 *271:27 0.00137508
4 *271:23 0.00114737
5 *271:17 0.0383561
6 *271:15 0.0457973
7 *271:15 la_data_out[25] 0
8 *271:15 *280:33 0.0138394
9 *271:15 *281:51 0.00058005
10 *271:27 *295:53 0.00510994
11 *175:9 *271:17 0.0429863
12 *179:9 *271:17 0.115563
13 *183:9 *271:15 0.00375299
14 *184:9 *271:15 0.000471728
15 *185:9 *271:15 0.000642109
16 *186:9 *271:15 0.000810288
17 *187:11 *271:15 0.00330854
18 *188:9 *271:15 0.00162372
19 *191:19 *271:27 0.00330904
20 *193:9 *271:27 0.00123535
21 *238:25 *271:27 0.000797011
22 *260:25 *271:27 0.000587391
*RES
1 la_data_in[9] *271:15 44.7387 
2 *271:15 *271:17 1046.83 
3 *271:17 *271:23 10.48 
4 *271:23 *271:27 49.025 
5 *271:27 la_data_out[107] 10.125 
*END

*D_NET *272 0.470919
*CONN
*P wbs_dat_o[10] O
*P la_data_out[10] O
*I *537:module_status_flags_out[10] O *D phase_099_top_integration
*CAP
1 wbs_dat_o[10] 0.00211172
2 la_data_out[10] 0.000531283
3 *537:module_status_flags_out[10] 0.000411322
4 *272:27 0.00873798
5 *272:25 0.00662625
6 *272:15 0.0979376
7 *272:13 0.0974064
8 *272:11 0.0152553
9 *272:9 0.0156666
10 wbs_dat_o[10] wbs_dat_o[11] 0.000854082
11 wbs_dat_o[10] wbs_dat_o[12] 0.0039143
12 wbs_dat_o[10] wbs_dat_o[13] 1.95991e-05
13 wbs_dat_o[10] *322:35 0.000224757
14 wbs_dat_o[10] *344:29 0.000482065
15 wbs_dat_o[10] *355:41 0.000492462
16 *272:11 *281:11 0.0188221
17 *272:11 *290:11 0
18 *272:11 *317:17 0.00299511
19 *272:11 *322:19 0.00923727
20 *272:11 *363:17 0.000308514
21 *272:27 *274:23 0.0373942
22 *272:27 *275:29 0.0342676
23 *272:27 *276:23 0.0029682
24 *272:27 *344:29 0
25 *537:rf_adc_i_in[3] *272:11 0.0083128
26 *537:rf_adc_i_in[6] *272:11 0.000167461
27 *537:rf_adc_i_in[9] *272:11 0.00123285
28 *52:21 *272:11 0.000123028
29 *124:7 *272:9 0.000224985
30 *126:11 *272:11 0.0216972
31 *132:13 *272:11 0
32 *133:47 *272:27 0.00116638
33 *134:27 wbs_dat_o[10] 0.00667314
34 *136:11 *272:11 0.0699949
35 *136:35 *272:27 0.00466139
36 *155:7 la_data_out[10] 0
37 *155:7 *272:15 0
*RES
1 *537:module_status_flags_out[10] *272:9 7.31 
2 *272:9 *272:11 103.927 
3 *272:11 *272:13 0.5 
4 *272:13 *272:15 1766.62 
5 *272:15 la_data_out[10] 8.295 
6 *272:15 *272:25 2 
7 *272:25 *272:27 359.94 
8 *272:27 wbs_dat_o[10] 24.5885 
*END

*D_NET *273 0.274655
*CONN
*P wbs_dat_o[11] O
*P la_data_out[11] O
*I *537:module_status_flags_out[11] O *D phase_099_top_integration
*CAP
1 wbs_dat_o[11] 0.00149387
2 la_data_out[11] 0.00033049
3 *537:module_status_flags_out[11] 0.000898397
4 *273:29 0.0157547
5 *273:27 0.0142608
6 *273:17 0.047363
7 *273:15 0.0470326
8 *273:13 0.0455956
9 *273:11 0.046494
10 wbs_dat_o[11] wbs_dat_o[12] 0.000867838
11 wbs_dat_o[11] *322:35 0.000314132
12 wbs_dat_o[11] *344:29 0.000682189
13 wbs_dat_o[11] *355:41 0.00127136
14 *273:11 *284:11 0
15 *273:13 *537:clk_2p4g 0
16 *273:13 *276:13 0
17 *273:13 *285:21 0
18 *273:13 *311:23 0
19 *273:13 *313:15 0
20 *273:29 wbs_dat_o[20] 0.00406561
21 *273:29 *276:23 0.000908886
22 *273:29 *280:33 0
23 wbs_dat_o[10] wbs_dat_o[11] 0.000854082
24 *537:rf_adc_q_in[11] *273:13 0
25 *70:5 la_data_out[11] 0
26 *70:5 *273:17 0
27 *132:43 *273:29 0.00680746
28 *132:49 *273:29 0.00532275
29 *133:47 *273:29 0.00781711
30 *144:15 *273:29 0.0119583
31 *183:9 *273:29 0.000815367
32 *216:15 *273:29 0.0111678
33 *260:15 *273:29 0.00257894
*RES
1 *537:module_status_flags_out[11] *273:11 15.215 
2 *273:11 *273:13 115.464 
3 *273:13 *273:15 0.5 
4 *273:15 *273:17 850.275 
5 *273:17 la_data_out[11] 5.4375 
6 *273:17 *273:27 0.5 
7 *273:27 *273:29 67.8021 
8 *273:29 wbs_dat_o[11] 19.9815 
*END

*D_NET *274 0.427441
*CONN
*P la_data_out[12] O
*P wbs_dat_o[12] O
*I *537:module_status_flags_out[12] O *D phase_099_top_integration
*CAP
1 la_data_out[12] 0.000492822
2 wbs_dat_o[12] 0.00173851
3 *537:module_status_flags_out[12] 0.000258807
4 *274:23 0.015098
5 *274:21 0.0150388
6 *274:15 0.0972824
7 *274:13 0.0960959
8 *274:11 0.0151729
9 *274:9 0.0154317
10 la_data_out[12] *275:29 0.000163175
11 wbs_dat_o[12] wbs_dat_o[13] 0.00219225
12 wbs_dat_o[12] wbs_dat_o[16] 5.96859e-05
13 wbs_dat_o[12] *322:35 0.000863348
14 wbs_dat_o[12] *344:29 0.00155472
15 wbs_dat_o[12] *355:41 0.000221081
16 *274:11 *296:9 0.0075465
17 *274:11 *299:15 0.00133736
18 *274:11 *312:9 0.00860409
19 *274:11 *317:19 0.00950716
20 *274:11 *318:11 0.00216816
21 *274:11 *322:27 0.0450786
22 *274:11 *338:16 0.000715902
23 *274:11 *344:11 0.00362652
24 *274:11 *344:19 0.0186693
25 *274:11 *351:17 0.00655386
26 *274:23 *275:29 0.00166353
27 *274:23 *276:23 0.00216547
28 wbs_dat_o[10] wbs_dat_o[12] 0.0039143
29 wbs_dat_o[11] wbs_dat_o[12] 0.000867838
30 *129:11 *274:9 8.79728e-05
31 *132:49 *274:23 0
32 *133:47 *274:23 0.00760882
33 *135:27 wbs_dat_o[12] 0.0024868
34 *136:35 wbs_dat_o[12] 0.00249294
35 *166:9 *274:23 0.000304175
36 *238:15 *274:23 0.00298337
37 *272:27 *274:23 0.0373942
*RES
1 *537:module_status_flags_out[12] *274:9 4.25 
2 *274:9 *274:11 101.189 
3 *274:11 *274:13 0.5 
4 *274:13 *274:15 1745.71 
5 *274:15 *274:21 20.6525 
6 *274:21 *274:23 364.425 
7 *274:23 wbs_dat_o[12] 25.4021 
8 *274:21 la_data_out[12] 11.075 
*END

*D_NET *275 0.39446
*CONN
*P wbs_dat_o[13] O
*P la_data_out[13] O
*I *537:module_status_flags_out[13] O *D phase_099_top_integration
*CAP
1 wbs_dat_o[13] 0.00230111
2 la_data_out[13] 0.000426513
3 *537:module_status_flags_out[13] 0.00028354
4 *275:29 0.0123691
5 *275:27 0.010068
6 *275:19 0.0467422
7 *275:17 0.0463157
8 *275:15 0.0575692
9 *275:13 0.0575692
10 *275:11 0.00639597
11 *275:9 0.00667952
12 wbs_dat_o[13] wbs_dat_o[14] 0.00332149
13 wbs_dat_o[13] wbs_dat_o[16] 0.0031177
14 wbs_dat_o[13] *277:41 0.000390217
15 wbs_dat_o[13] *322:35 0.000513964
16 wbs_dat_o[13] *333:37 0.000351957
17 wbs_dat_o[13] *344:29 0.000543899
18 wbs_dat_o[13] *355:41 0.000789942
19 *275:9 *355:7 3.19339e-05
20 *275:11 *293:9 0.00602215
21 *275:11 *295:31 0.0090859
22 *275:11 *302:9 0.00757701
23 *275:11 *317:31 0.0185665
24 *275:11 *320:15 0.0353278
25 *275:11 *326:15 0.000942279
26 *275:15 *276:13 0
27 *275:15 *282:13 0
28 *275:15 *299:51 0.00025863
29 *275:15 *308:45 0.000308568
30 *275:15 *337:15 0
31 *275:29 *276:23 0.00656981
32 *275:29 *277:33 0
33 *275:29 *282:39 0.00244358
34 *275:29 *344:29 0
35 la_data_out[12] *275:29 0.000163175
36 wbs_dat_o[10] wbs_dat_o[13] 1.95991e-05
37 wbs_dat_o[12] wbs_dat_o[13] 0.00219225
38 *134:27 wbs_dat_o[13] 0.00427073
39 *136:27 *275:29 0.00602007
40 *144:17 *275:29 0
41 *166:9 *275:29 0.000768309
42 *216:15 la_data_out[13] 0
43 *260:17 *275:29 0.00221144
44 *272:27 *275:29 0.0342676
45 *274:23 *275:29 0.00166353
*RES
1 *537:module_status_flags_out[13] *275:9 0.9028 
2 *275:9 *275:11 420.855 
3 *275:11 *275:13 0.5 
4 *275:13 *275:15 151.298 
5 *275:15 *275:17 0.5 
6 *275:17 *275:19 837.653 
7 *275:19 la_data_out[13] 7.065 
8 *275:19 *275:27 2 
9 *275:27 *275:29 352.005 
10 *275:29 wbs_dat_o[13] 26.5029 
*END

*D_NET *276 0.300546
*CONN
*P la_data_out[14] O
*P wbs_dat_o[14] O
*I *537:module_status_flags_out[14] O *D phase_099_top_integration
*CAP
1 la_data_out[14] 0.00043167
2 wbs_dat_o[14] 0.00200631
3 *537:module_status_flags_out[14] 0.00116188
4 *276:23 0.0108615
5 *276:21 0.00932596
6 *276:17 0.0466367
7 *276:15 0.0465977
8 *276:13 0.042267
9 *276:11 0.0434289
10 wbs_dat_o[14] wbs_dat_o[16] 0.000664601
11 wbs_dat_o[14] wbs_dat_o[17] 0.00177648
12 wbs_dat_o[14] *277:41 0.000286026
13 wbs_dat_o[14] *333:37 0.000306242
14 wbs_dat_o[14] *355:41 0.00622025
15 *276:11 *294:7 0
16 *276:11 *294:9 0
17 *276:13 *299:51 0.000942183
18 *276:13 *308:45 0.000242493
19 *276:23 *278:23 0.00241046
20 wbs_dat_o[13] wbs_dat_o[14] 0.00332149
21 *73:5 *276:17 0
22 *133:47 *276:23 0.000889047
23 *135:27 *276:23 0.0247505
24 *136:27 *276:23 0.00109842
25 *136:35 *276:23 0.0203541
26 *166:9 *276:21 0.000279014
27 *166:9 *276:23 0.00503025
28 *216:15 *276:23 0.000961697
29 *238:15 *276:23 0.00430265
30 *249:15 *276:21 0.000300092
31 *249:15 *276:23 0.0110795
32 *272:27 *276:23 0.0029682
33 *273:13 *276:13 0
34 *273:29 *276:23 0.000908886
35 *274:23 *276:23 0.00216547
36 *275:15 *276:13 0
37 *275:29 *276:23 0.00656981
*RES
1 *537:module_status_flags_out[14] *276:11 20.315 
2 *276:11 *276:13 107.657 
3 *276:13 *276:15 0.5 
4 *276:15 *276:17 842.625 
5 *276:17 *276:21 0.945867 
6 *276:21 *276:23 61.7424 
7 *276:23 wbs_dat_o[14] 24.3947 
8 *276:21 la_data_out[14] 7.6925 
*END

*D_NET *277 0.481723
*CONN
*P la_data_out[15] O
*P wbs_dat_o[15] O
*I *537:module_status_flags_out[15] O *D phase_099_top_integration
*CAP
1 la_data_out[15] 0.000631245
2 wbs_dat_o[15] 0.000631924
3 *537:module_status_flags_out[15] 0.000599776
4 *277:41 0.00332861
5 *277:39 0.00278981
6 *277:33 0.00579534
7 *277:31 0.00633346
8 *277:29 0.0474013
9 *277:27 0.0481593
10 *277:15 0.0197813
11 *277:13 0.0190233
12 *277:11 0.0104658
13 *277:9 0.0110656
14 la_data_out[15] *279:45 0.000343062
15 la_data_out[15] *282:31 0.000346781
16 *277:11 *281:11 0.00127872
17 *277:11 *291:11 0.017861
18 *277:11 *333:11 0.0227736
19 *277:11 *363:19 0.000261436
20 *277:15 *279:15 0.0356556
21 *277:15 *286:15 0
22 *277:27 *279:35 0.000366372
23 *277:27 *281:35 0.000164547
24 *277:27 *286:37 0.00194734
25 *277:27 *299:51 0.00079449
26 *277:29 *299:51 0.000723391
27 *277:33 wbs_dat_o[16] 0.000321094
28 *277:33 *278:23 0.00759
29 *277:33 *279:45 0.0325556
30 *277:33 *282:31 0.00959086
31 *277:33 *282:39 0.000962823
32 *277:33 *285:31 0.000427199
33 *277:33 *344:27 0.000262027
34 *277:33 *344:29 0.0258865
35 *277:39 wbs_dat_o[21] 0
36 *277:41 wbs_dat_o[17] 0.00131672
37 *277:41 *333:37 0.0082987
38 wbs_dat_o[13] *277:41 0.000390217
39 wbs_dat_o[14] *277:41 0.000286026
40 *537:rf_adc_q_in[0] *277:27 0
41 *537:rf_adc_q_in[10] *277:27 5.34439e-05
42 *537:rf_adc_q_in[4] *277:29 1.97029e-06
43 *537:rf_adc_q_in[5] *277:27 0.000461322
44 *537:rf_adc_q_in[5] *277:29 2.71132e-05
45 *537:rf_adc_q_in[6] *277:29 0
46 *30:21 *277:11 0.016847
47 *37:13 *277:15 0.0183962
48 *38:9 *277:27 0.000995131
49 *41:21 *277:11 0.0175616
50 *42:13 *277:15 0
51 *51:9 *277:15 0.0645105
52 *52:21 *277:11 0.000295519
53 *126:11 *277:11 0.0124725
54 *126:17 *277:15 0.00368993
55 *275:29 *277:33 0
*RES
1 *537:module_status_flags_out[15] *277:9 10.4675 
2 *277:9 *277:11 542.445 
3 *277:11 *277:13 2 
4 *277:13 *277:15 905.482 
5 *277:15 *277:27 6.15993 
6 *277:27 *277:29 859.583 
7 *277:29 *277:31 2 
8 *277:31 *277:33 342 
9 *277:33 *277:39 5.125 
10 *277:39 *277:41 76.35 
11 *277:41 wbs_dat_o[15] 12.125 
12 *277:31 la_data_out[15] 14.315 
*END

*D_NET *278 0.276309
*CONN
*P la_data_out[16] O
*P wbs_dat_o[16] O
*I *537:module_status_flags_out[16] O *D phase_099_top_integration
*CAP
1 la_data_out[16] 0.000556886
2 wbs_dat_o[16] 0.00291676
3 *537:module_status_flags_out[16] 7.84666e-05
4 *278:23 0.0114072
5 *278:21 0.0108122
6 *278:13 0.0316648
7 *278:11 0.0298999
8 *278:9 0.045818
9 *278:7 0.0458965
10 wbs_dat_o[16] wbs_dat_o[17] 0.00780173
11 wbs_dat_o[16] *322:35 0.00205723
12 wbs_dat_o[16] *344:29 0.00178993
13 *278:21 *287:29 0.000129644
14 *278:23 wbs_dat_o[17] 0.00169732
15 *278:23 wbs_dat_o[27] 0.00640599
16 *278:23 *279:43 0.000228879
17 *278:23 *279:45 0.00624976
18 *278:23 *282:39 0.00544491
19 *278:23 *287:29 0.0160687
20 *278:23 *322:35 0.000211635
21 *278:23 *344:29 0.000229571
22 *278:23 *355:41 0.000360766
23 wbs_dat_o[12] wbs_dat_o[16] 5.96859e-05
24 wbs_dat_o[13] wbs_dat_o[16] 0.0031177
25 wbs_dat_o[14] wbs_dat_o[16] 0.000664601
26 *75:7 *278:21 0
27 *134:13 *278:13 0
28 *134:27 wbs_dat_o[16] 0.00352068
29 *134:27 *278:23 0.0172349
30 *135:27 *278:23 0.000752752
31 *144:17 *278:23 0.000533786
32 *155:9 *278:21 0.000199131
33 *155:9 *278:23 0.00959593
34 *249:15 *278:23 0.00258122
35 *276:23 *278:23 0.00241046
36 *277:33 wbs_dat_o[16] 0.000321094
37 *277:33 *278:23 0.00759
*RES
1 *537:module_status_flags_out[16] *278:7 1.35 
2 *278:7 *278:9 830.895 
3 *278:9 *278:11 0.5 
4 *278:11 *278:13 75.1437 
5 *278:13 *278:21 29.9943 
6 *278:21 *278:23 56.9937 
7 *278:23 wbs_dat_o[16] 25.9547 
8 *278:21 la_data_out[16] 9.2225 
*END

*D_NET *279 0.476334
*CONN
*P la_data_out[17] O
*P wbs_dat_o[17] O
*I *537:module_status_flags_out[17] O *D phase_099_top_integration
*CAP
1 la_data_out[17] 0.000653331
2 wbs_dat_o[17] 0.00337452
3 *537:module_status_flags_out[17] 0.000456091
4 *279:45 0.00818377
5 *279:43 0.00520084
6 *279:39 0.00104492
7 *279:37 0.0475089
8 *279:35 0.0489418
9 *279:15 0.0173747
10 *279:13 0.0159419
11 *279:11 0.00604988
12 *279:9 0.00650597
13 la_data_out[17] *282:31 0.000421821
14 wbs_dat_o[17] wbs_dat_o[24] 0
15 wbs_dat_o[17] *322:35 0.000538029
16 wbs_dat_o[17] *333:37 0.00152799
17 wbs_dat_o[17] *344:29 0.000583983
18 wbs_dat_o[17] *355:41 0.00485847
19 *279:9 *317:17 0.000482382
20 *279:11 *289:11 0.0391247
21 *279:11 *290:11 0.000334812
22 *279:11 *291:11 0.00107704
23 *279:15 *286:15 0
24 *279:35 *281:35 0.00546952
25 *279:35 *286:37 0.00248674
26 *279:35 *308:37 3.43021e-05
27 *279:37 *299:73 0
28 *279:43 *282:31 0.00227478
29 *279:45 *282:31 0.000118314
30 *279:45 *282:39 0.0131275
31 la_data_out[15] *279:45 0.000343062
32 wbs_dat_o[14] wbs_dat_o[17] 0.00177648
33 wbs_dat_o[16] wbs_dat_o[17] 0.00780173
34 *38:9 *279:35 7.86938e-05
35 *39:13 *279:15 7.1163e-05
36 *42:13 *279:15 5.52208e-05
37 *77:21 *279:15 0.0205705
38 *78:25 *279:15 0.081324
39 *126:11 *279:11 0.0397203
40 *144:17 la_data_out[17] 0.000250798
41 *144:17 *279:43 0.00136524
42 *144:17 *279:45 0.0110998
43 *155:9 *279:43 0.000109729
44 *277:15 *279:15 0.0356556
45 *277:27 *279:35 0.000366372
46 *277:33 *279:45 0.0325556
47 *277:41 wbs_dat_o[17] 0.00131672
48 *278:23 wbs_dat_o[17] 0.00169732
49 *278:23 *279:43 0.000228879
50 *278:23 *279:45 0.00624976
*RES
1 *537:module_status_flags_out[17] *279:9 9.005 
2 *279:9 *279:11 58.8873 
3 *279:11 *279:13 0.5 
4 *279:13 *279:15 905.355 
5 *279:15 *279:35 11.6313 
6 *279:35 *279:37 858.562 
7 *279:37 *279:39 2 
8 *279:39 *279:43 21.3375 
9 *279:43 *279:45 300.082 
10 *279:45 wbs_dat_o[17] 30.0927 
11 *279:39 la_data_out[17] 15.005 
*END

*D_NET *280 0.241271
*CONN
*P wbs_dat_o[18] O
*P la_data_out[18] O
*I *537:module_status_flags_out[18] O *D phase_099_top_integration
*CAP
1 wbs_dat_o[18] 4.08978e-05
2 la_data_out[18] 0.000104519
3 *537:module_status_flags_out[18] 0.000434
4 *280:33 0.0243039
5 *280:31 0.024263
6 *280:21 0.0017472
7 *280:17 0.0478435
8 *280:15 0.0557878
9 *280:11 0.010021
10 *280:15 *284:13 0.00204758
11 *280:15 *287:13 0.0207406
12 *280:15 *289:21 0.00183682
13 *280:15 *290:21 0.0147179
14 *280:15 *300:15 0.00176666
15 *280:17 *299:95 0
16 *280:33 wbs_dat_o[20] 0
17 *280:33 *281:51 0.021776
18 *76:9 *280:15 0
19 *144:15 *280:33 0
20 *181:7 *280:21 0
21 *183:9 *280:33 0
22 *271:15 *280:33 0.0138394
23 *273:29 *280:33 0
*RES
1 *537:module_status_flags_out[18] *280:11 8.075 
2 *280:11 *280:15 48.1419 
3 *280:15 *280:17 837.405 
4 *280:17 *280:21 26.01 
5 *280:21 la_data_out[18] 1.3575 
6 *280:21 *280:31 0.5 
7 *280:31 *280:33 71.1233 
8 *280:33 wbs_dat_o[18] 1.2425 
*END

*D_NET *281 0.477629
*CONN
*P la_data_out[19] O
*P wbs_dat_o[19] O
*I *537:module_status_flags_out[19] O *D phase_099_top_integration
*CAP
1 la_data_out[19] 7.43608e-05
2 wbs_dat_o[19] 7.82142e-05
3 *537:module_status_flags_out[19] 0.000528554
4 *281:51 0.0244669
5 *281:49 0.0245123
6 *281:41 0.00171762
7 *281:37 0.0478719
8 *281:35 0.0486328
9 *281:15 0.0237849
10 *281:13 0.0215044
11 *281:11 0.0229294
12 *281:9 0.0234579
13 *281:9 *344:9 0
14 *281:11 *291:11 0
15 *281:11 *317:17 0.000623837
16 *281:11 *322:19 0.0234196
17 *281:11 *330:13 0.00073683
18 *281:11 *333:11 0.0228119
19 *281:15 *286:15 0.0288897
20 *281:15 *286:19 0
21 *281:15 *296:17 0.0776668
22 *281:35 *286:37 0.0010557
23 *281:35 *299:51 1.92101e-05
24 *281:37 *299:95 0
25 *281:37 *299:103 0.000390745
26 *281:37 *308:47 0
27 *537:rf_adc_i_in[3] *281:11 0.00152946
28 *537:rf_adc_i_in[9] *281:11 0.000259003
29 *537:rf_adc_q_in[0] *281:35 7.01981e-05
30 *537:rf_adc_q_in[13] *281:35 5.44786e-05
31 *38:9 *281:35 1.91769e-05
32 *51:9 *281:15 0
33 *52:21 *281:11 0.0214244
34 *76:9 *281:35 1.42293e-05
35 *77:19 *281:35 0.00790573
36 *78:23 *281:35 0
37 *80:25 *281:35 0.000402449
38 *131:13 *281:35 0
39 *136:11 *281:11 0.00261748
40 *180:15 *281:41 1.62899e-05
41 *260:23 *281:41 5.18954e-05
42 *271:15 *281:51 0.00058005
43 *272:11 *281:11 0.0188221
44 *277:11 *281:11 0.00127872
45 *277:27 *281:35 0.000164547
46 *279:35 *281:35 0.00546952
47 *280:33 *281:51 0.021776
*RES
1 *537:module_status_flags_out[19] *281:9 9.4475 
2 *281:9 *281:11 706.665 
3 *281:11 *281:13 2 
4 *281:13 *281:15 901.912 
5 *281:15 *281:35 16.9568 
6 *281:35 *281:37 842.505 
7 *281:37 *281:41 24.48 
8 *281:41 *281:49 4.5725 
9 *281:49 *281:51 421.005 
10 *281:51 wbs_dat_o[19] 2.975 
11 *281:41 la_data_out[19] 1.8675 
*END

*D_NET *282 0.372245
*CONN
*P wbs_dat_o[20] O
*P la_data_out[20] O
*I *537:module_status_flags_out[20] O *D phase_099_top_integration
*CAP
1 wbs_dat_o[20] 0.001996
2 la_data_out[20] 0.000607439
3 *537:module_status_flags_out[20] 0.000507908
4 *282:39 0.00900455
5 *282:37 0.0070948
6 *282:31 0.00343079
7 *282:29 0.00334454
8 *282:21 0.00160003
9 *282:17 0.0452471
10 *282:15 0.0442545
11 *282:13 0.0535847
12 *282:11 0.0535847
13 *282:9 0.00770702
14 *282:7 0.00821493
15 *282:7 *364:7 9.54275e-05
16 *282:9 *309:15 0.0176474
17 *282:9 *312:27 0.000280335
18 *282:9 *318:31 0.00312376
19 *282:9 *319:9 0.00887165
20 *282:9 *325:22 0
21 *282:9 *334:15 0.0347071
22 *282:9 *338:30 0.00787201
23 *282:13 *283:13 0
24 *282:17 *308:61 0.00301034
25 *282:31 *285:31 0.00639828
26 *282:31 *287:29 0.00365045
27 *282:37 la_data_out[8] 0
28 la_data_out[15] *282:31 0.000346781
29 la_data_out[17] *282:31 0.000421821
30 *104:5 *282:37 0
31 *131:7 *282:7 9.54275e-05
32 *132:49 wbs_dat_o[20] 0.00148425
33 *136:27 *282:39 0.00202633
34 *144:17 *282:31 0.00180202
35 *144:17 *282:39 0.000810135
36 *249:15 la_data_out[20] 0
37 *249:15 *282:21 0
38 *260:25 *282:31 0.00139373
39 *273:29 wbs_dat_o[20] 0.00406561
40 *275:15 *282:13 0
41 *275:29 *282:39 0.00244358
42 *277:33 *282:31 0.00959086
43 *277:33 *282:39 0.000962823
44 *278:23 *282:39 0.00544491
45 *279:43 *282:31 0.00227478
46 *279:45 *282:31 0.000118314
47 *279:45 *282:39 0.0131275
48 *280:33 wbs_dat_o[20] 0
*RES
1 *537:module_status_flags_out[20] *282:7 1.53867 
2 *282:7 *282:9 419.835 
3 *282:9 *282:11 0.5 
4 *282:11 *282:13 136.499 
5 *282:13 *282:15 0.5 
6 *282:15 *282:17 814.965 
7 *282:17 *282:21 15.8475 
8 *282:21 la_data_out[20] 9.36 
9 *282:21 *282:29 2 
10 *282:29 *282:31 157.77 
11 *282:31 *282:37 5.125 
12 *282:37 *282:39 227.805 
13 *282:39 wbs_dat_o[20] 17.4845 
*END

*D_NET *283 0.293893
*CONN
*P la_data_out[21] O
*P wbs_dat_o[21] O
*I *537:module_status_flags_out[21] O *D phase_099_top_integration
*CAP
1 la_data_out[21] 0.000857016
2 wbs_dat_o[21] 0.000829789
3 *537:module_status_flags_out[21] 0.00200649
4 *283:23 0.0105006
5 *283:21 0.0105855
6 *283:17 0.0424077
7 *283:15 0.04235
8 *283:13 0.0403799
9 *283:11 0.0423864
10 *283:17 *296:63 0
11 *283:17 *299:121 0.013186
12 *283:21 *284:31 0.000292424
13 *283:21 *288:31 0.000148839
14 *283:23 *284:31 0.0450076
15 *283:23 *286:51 0.0403537
16 *283:23 *288:31 0.000932683
17 *283:23 *364:33 0.00166818
18 *81:5 *283:17 0
19 *83:9 *283:23 0
20 *277:39 wbs_dat_o[21] 0
21 *282:13 *283:13 0
*RES
1 *537:module_status_flags_out[21] *283:11 35.615 
2 *283:11 *283:13 99.2661 
3 *283:13 *283:15 0.5 
4 *283:15 *283:17 821.715 
5 *283:17 *283:21 0.945867 
6 *283:21 *283:23 71.1816 
7 *283:23 wbs_dat_o[21] 13.3025 
8 *283:21 la_data_out[21] 13.3025 
*END

*D_NET *284 0.303218
*CONN
*P wbs_dat_o[22] O
*P la_data_out[22] O
*I *537:module_status_flags_out[22] O *D phase_099_top_integration
*CAP
1 wbs_dat_o[22] 0.000862952
2 la_data_out[22] 0.000892998
3 *537:module_status_flags_out[22] 0.000557816
4 *284:31 0.0151612
5 *284:29 0.0142982
6 *284:21 0.00363813
7 *284:17 0.0468619
8 *284:15 0.0441168
9 *284:13 0.0157374
10 *284:11 0.0162952
11 *284:13 *285:21 0.00431606
12 *284:13 *287:13 0.000657208
13 *284:13 *288:13 0.0460411
14 *284:13 *289:21 0.00741982
15 *284:13 *291:29 0.000760784
16 *284:13 *297:23 0.00384167
17 *284:13 *304:19 0.00201954
18 *284:13 *305:13 0.0017393
19 *284:13 *311:23 0.00146787
20 *284:13 *313:15 0.00686886
21 *284:13 *314:19 0.00322785
22 *284:13 *321:26 0.00312984
23 *284:31 *288:31 0.000450328
24 *83:9 *284:31 0
25 *205:9 *284:31 0.0155074
26 *238:23 la_data_out[22] 0
27 *273:11 *284:11 0
28 *280:15 *284:13 0.00204758
29 *283:21 *284:31 0.000292424
30 *283:23 *284:31 0.0450076
*RES
1 *537:module_status_flags_out[22] *284:11 9.605 
2 *284:11 *284:13 91.4001 
3 *284:13 *284:15 0.5 
4 *284:15 *284:17 799.65 
5 *284:17 *284:21 48.465 
6 *284:21 la_data_out[22] 13.3125 
7 *284:21 *284:29 0.5 
8 *284:29 *284:31 71.1816 
9 *284:31 wbs_dat_o[22] 13.8125 
*END

*D_NET *285 0.308604
*CONN
*P la_data_out[23] O
*P wbs_dat_o[23] O
*I *537:module_status_flags_out[23] O *D phase_099_top_integration
*CAP
1 la_data_out[23] 0.00067654
2 wbs_dat_o[23] 0.000664289
3 *537:module_status_flags_out[23] 0.000411199
4 *285:31 0.00970299
5 *285:29 0.00974426
6 *285:25 0.0468995
7 *285:23 0.0468705
8 *285:21 0.0162254
9 *285:19 0.0164996
10 *285:13 0.00923484
11 *285:11 0.00937189
12 *285:11 *339:7 0
13 *285:11 *339:9 0
14 *285:11 *342:7 0
15 *285:11 *342:9 0
16 *285:13 *297:13 0.0265639
17 *285:13 *304:19 0
18 *285:13 *310:15 0.000295725
19 *285:13 *311:15 0.00513749
20 *285:13 *314:19 0
21 *285:19 la_data_out[49] 0.000107811
22 *285:21 *537:clk_2p4g 0.00168707
23 *285:21 *289:21 0.000516016
24 *285:21 *291:29 0.00242032
25 *285:21 *297:23 0.0123214
26 *285:21 *455:17 0.00947241
27 *285:29 *292:41 0.000196699
28 *285:31 *287:29 0.00942562
29 *285:31 *291:35 0.000836618
30 *285:31 *292:41 0.0356007
31 *285:31 *333:37 0.0212094
32 *285:31 *344:27 0.000108453
33 *285:31 *344:29 0.000579186
34 *285:31 *355:31 0
35 *285:31 *355:41 0.00063921
36 *285:31 *364:23 0
37 *83:7 *285:25 0
38 *238:25 *285:29 0.000186986
39 *238:25 *285:31 0.00120791
40 *260:25 *285:31 0.00264886
41 *273:13 *285:21 0
42 *277:33 *285:31 0.000427199
43 *282:31 *285:31 0.00639828
44 *284:13 *285:21 0.00431606
*RES
1 *537:module_status_flags_out[23] *285:11 8.9375 
2 *285:11 *285:13 244.71 
3 *285:13 *285:19 7.3225 
4 *285:19 *285:21 58.0133 
5 *285:21 *285:23 0.5 
6 *285:23 *285:25 847.852 
7 *285:25 *285:29 3.83 
8 *285:29 *285:31 421.35 
9 *285:31 wbs_dat_o[23] 12.125 
10 *285:29 la_data_out[23] 12.125 
*END

*D_NET *286 0.435171
*CONN
*P la_data_out[24] O
*P wbs_dat_o[24] O
*I *537:module_status_flags_out[24] O *D phase_099_top_integration
*CAP
1 la_data_out[24] 0.000954406
2 wbs_dat_o[24] 0.000803505
3 *537:module_status_flags_out[24] 0.000685412
4 *286:51 0.00871185
5 *286:49 0.00794437
6 *286:43 0.00191647
7 *286:41 0.00283485
8 *286:39 0.0473719
9 *286:37 0.0523647
10 *286:19 0.00704208
11 *286:17 0.00207403
12 *286:15 0.0229046
13 *286:13 0.0228798
14 *286:11 0.00782521
15 *286:9 0.00851062
16 la_data_out[24] *289:27 0.000411561
17 *286:9 *329:9 0
18 *286:11 *290:11 0.0340216
19 *286:15 *333:25 0.000793135
20 *286:43 *288:31 0.00099703
21 *286:43 *289:27 0.00562506
22 *286:51 *288:31 0.0373977
23 *286:51 *364:33 0.00162527
24 wbs_dat_o[17] wbs_dat_o[24] 0
25 *537:rf_adc_q_in[0] *286:37 2.35067e-05
26 *537:rf_adc_q_in[12] *286:37 0
27 *537:rf_adc_q_in[13] *286:37 0.000798435
28 *537:rf_adc_q_in[14] *286:37 0.00012026
29 *37:13 *286:15 0.0119633
30 *37:13 *286:19 0.0010802
31 *38:9 *286:37 0.0132673
32 *51:9 *286:15 0.00780177
33 *51:9 *286:19 5.04731e-05
34 *53:9 *286:15 0.0242045
35 *53:9 *286:19 0.00507545
36 *78:23 *286:37 0.000601428
37 *78:25 *286:15 0
38 *80:25 *286:37 0
39 *126:17 *286:15 0.00108708
40 *131:13 *286:37 0
41 *132:13 *286:11 0.0186689
42 *277:15 *286:15 0
43 *277:27 *286:37 0.00194734
44 *279:15 *286:15 0
45 *279:35 *286:37 0.00248674
46 *281:15 *286:15 0.0288897
47 *281:15 *286:19 0
48 *281:35 *286:37 0.0010557
49 *283:23 *286:51 0.0403537
*RES
1 *537:module_status_flags_out[24] *286:9 10.535 
2 *286:9 *286:11 51.9536 
3 *286:11 *286:13 0.5 
4 *286:13 *286:15 846.72 
5 *286:15 *286:17 0.45 
6 *286:17 *286:19 57.72 
7 *286:19 *286:37 30.1521 
8 *286:37 *286:39 856.778 
9 *286:39 *286:41 2 
10 *286:41 *286:43 51.855 
11 *286:43 *286:49 2.9875 
12 *286:49 *286:51 61.8007 
13 *286:51 wbs_dat_o[24] 12.7925 
14 *286:41 la_data_out[24] 17.81 
*END

*D_NET *287 0.309545
*CONN
*P wbs_dat_o[25] O
*P la_data_out[25] O
*I *537:module_status_flags_out[25] O *D phase_099_top_integration
*CAP
1 wbs_dat_o[25] 0.000625893
2 la_data_out[25] 0.000781937
3 *537:module_status_flags_out[25] 0.000487175
4 *287:29 0.0137975
5 *287:27 0.0131716
6 *287:17 0.0478908
7 *287:15 0.0471088
8 *287:13 0.00872936
9 *287:11 0.00921654
10 *287:11 *313:15 0
11 *287:13 *288:13 0.0433542
12 *287:13 *300:15 0.00306319
13 *287:13 *304:19 0.00260549
14 *287:13 *305:13 0.018166
15 *287:17 *308:77 0
16 *287:29 wbs_dat_o[27] 0.00622212
17 *287:29 *290:33 0.0188051
18 *287:29 *322:35 0.00186885
19 *287:29 *333:37 0.00351361
20 *287:29 *344:29 0.002913
21 *287:29 *355:41 0.00163185
22 *287:29 *364:33 0.000549277
23 *85:5 *287:17 0
24 *155:9 *287:29 0.00564993
25 *216:23 la_data_out[25] 0
26 *238:25 *287:29 0.00021124
27 *249:17 *287:29 0.00771498
28 *260:25 *287:29 0.00079424
29 *271:15 la_data_out[25] 0
30 *278:21 *287:29 0.000129644
31 *278:23 *287:29 0.0160687
32 *280:15 *287:13 0.0207406
33 *282:31 *287:29 0.00365045
34 *284:13 *287:13 0.000657208
35 *285:31 *287:29 0.00942562
*RES
1 *537:module_status_flags_out[25] *287:11 8.585 
2 *287:11 *287:13 68.0352 
3 *287:13 *287:15 0.5 
4 *287:15 *287:17 851.805 
5 *287:17 la_data_out[25] 10.8825 
6 *287:17 *287:27 0.5 
7 *287:27 *287:29 71.3564 
8 *287:29 wbs_dat_o[25] 10.2425 
*END

*D_NET *288 0.320614
*CONN
*P wbs_dat_o[26] O
*P la_data_out[26] O
*I *537:module_status_flags_out[26] O *D phase_099_top_integration
*CAP
1 wbs_dat_o[26] 0.000765348
2 la_data_out[26] 0.000799283
3 *537:module_status_flags_out[26] 0.000518131
4 *288:31 0.0114331
5 *288:29 0.0106677
6 *288:21 0.00355838
7 *288:19 0.0028789
8 *288:17 0.043314
9 *288:15 0.0431942
10 *288:13 0.00778121
11 *288:11 0.00829934
12 *288:13 *305:13 0.000722377
13 *288:17 *537:clk_2p4g 0
14 *288:17 *299:155 0.00418924
15 *288:31 *290:33 0.00231337
16 *288:31 *293:29 0.0391059
17 *288:31 *355:31 0.00407466
18 *288:31 *364:23 0.00348128
19 *288:31 *364:33 0.00313913
20 *205:9 *288:31 0.00105632
21 *283:21 *288:31 0.000148839
22 *283:23 *288:31 0.000932683
23 *284:13 *288:13 0.0460411
24 *284:31 *288:31 0.000450328
25 *286:43 *288:31 0.00099703
26 *286:51 *288:31 0.0373977
27 *287:13 *288:13 0.0433542
*RES
1 *537:module_status_flags_out[26] *288:11 9.095 
2 *288:11 *288:13 68.3265 
3 *288:13 *288:15 0.5 
4 *288:15 *288:17 800.16 
5 *288:17 *288:19 2.175 
6 *288:19 *288:21 49.2 
7 *288:21 la_data_out[26] 11.7825 
8 *288:21 *288:29 0.5 
9 *288:29 *288:31 71.1816 
10 *288:31 wbs_dat_o[26] 12.2825 
*END

*D_NET *289 0.513213
*CONN
*P la_data_out[27] O
*P wbs_dat_o[27] O
*I *537:module_status_flags_out[27] O *D phase_099_top_integration
*CAP
1 la_data_out[27] 0.000887249
2 wbs_dat_o[27] 0.00199027
3 *537:module_status_flags_out[27] 0.000553677
4 *289:27 0.0138398
5 *289:25 0.0127367
6 *289:23 0.0486575
7 *289:21 0.0529824
8 *289:15 0.0227119
9 *289:13 0.018387
10 *289:11 0.00765171
11 *289:9 0.00820539
12 la_data_out[27] *291:35 6.9281e-05
13 wbs_dat_o[27] wbs_dat_o[31] 0
14 wbs_dat_o[27] *322:35 0.00139043
15 wbs_dat_o[27] *344:29 0.00126748
16 *289:11 *290:11 0.0362002
17 *289:11 *291:11 0.00137884
18 *289:11 *363:19 0.000470165
19 *289:15 *308:23 0.067491
20 *289:15 *308:37 0.000317033
21 *289:21 *537:clk_2p4g 0.0184827
22 *289:21 *290:21 0.00115143
23 *289:27 *291:35 0.0122957
24 *289:27 *293:29 0.0082504
25 *289:27 *364:21 0.000186986
26 *289:27 *364:23 0.0135948
27 la_data_out[24] *289:27 0.000411561
28 *537:rf_adc_i_in[4] *289:11 0.00202639
29 *537:rf_adc_i_in[5] *289:9 0
30 *537:rf_adc_q_in[15] *289:21 0.000306441
31 *537:rf_adc_q_in[4] *289:21 0.000343566
32 *77:21 *289:15 0
33 *80:27 *289:15 0.0858257
34 *126:11 *289:11 0.00370969
35 *132:13 *289:11 0.00228872
36 *144:21 *289:23 0
37 *144:37 la_data_out[27] 0
38 *278:23 wbs_dat_o[27] 0.00640599
39 *279:11 *289:11 0.0391247
40 *280:15 *289:21 0.00183682
41 *284:13 *289:21 0.00741982
42 *285:21 *289:21 0.000516016
43 *286:43 *289:27 0.00562506
44 *287:29 wbs_dat_o[27] 0.00622212
*RES
1 *537:module_status_flags_out[27] *289:9 8.48 
2 *289:9 *289:11 67.5982 
3 *289:11 *289:13 0.5 
4 *289:13 *289:15 154.733 
5 *289:15 *289:21 31.0162 
6 *289:21 *289:23 848.362 
7 *289:23 *289:25 2 
8 *289:25 *289:27 362.7 
9 *289:27 wbs_dat_o[27] 24.2955 
10 *289:25 la_data_out[27] 15.83 
*END

*D_NET *290 0.490844
*CONN
*P wbs_dat_o[28] O
*P la_data_out[28] O
*I *537:module_status_flags_out[28] O *D phase_099_top_integration
*CAP
1 wbs_dat_o[28] 0.000714392
2 la_data_out[28] 0.000734731
3 *537:module_status_flags_out[28] 0.000590512
4 *290:33 0.0122423
5 *290:31 0.011528
6 *290:23 0.0473551
7 *290:21 0.0560627
8 *290:15 0.0409158
9 *290:13 0.0314735
10 *290:11 0.00672221
11 *290:9 0.00731272
12 *290:9 *323:11 0
13 *290:11 *291:11 0.000283549
14 *290:15 *291:15 0.0816202
15 *290:21 *291:19 0.00966733
16 *290:21 *308:37 0
17 *290:23 *296:131 0
18 *290:23 *299:179 0
19 *290:23 *299:193 0.00227642
20 *290:33 *291:35 0.00618653
21 *290:33 *292:41 0.00670334
22 *290:33 *293:29 0.0420222
23 *290:33 *364:33 0.000210039
24 *537:rf_adc_q_in[10] *290:21 0.000811677
25 *537:rf_adc_q_in[15] *290:21 0.000156891
26 *537:rf_adc_q_in[3] *290:21 0.00189987
27 *537:rf_adc_q_in[4] *290:21 0.00216947
28 *537:rf_adc_q_in[7] *290:21 4.98249e-05
29 *44:11 *290:21 0.000516203
30 *71:5 *290:15 3.78569e-05
31 *76:9 *290:21 0
32 *126:11 *290:11 5.30665e-05
33 *132:13 *290:11 0.000987405
34 *249:17 *290:33 0.0119953
35 *272:11 *290:11 0
36 *279:11 *290:11 0.000334812
37 *280:15 *290:21 0.0147179
38 *286:11 *290:11 0.0340216
39 *287:29 *290:33 0.0188051
40 *288:31 *290:33 0.00231337
41 *289:11 *290:11 0.0362002
42 *289:21 *290:21 0.00115143
*RES
1 *537:module_status_flags_out[28] *290:9 9.335 
2 *290:9 *290:11 56.0323 
3 *290:11 *290:13 0.5 
4 *290:13 *290:15 914.025 
5 *290:15 *290:21 36.0563 
6 *290:21 *290:23 851.805 
7 *290:23 la_data_out[28] 10.7625 
8 *290:23 *290:31 0.5 
9 *290:31 *290:33 71.1816 
10 *290:33 wbs_dat_o[28] 11.2625 
*END

*D_NET *291 0.456538
*CONN
*P la_data_out[29] O
*P wbs_dat_o[29] O
*I *537:module_status_flags_out[29] O *D phase_099_top_integration
*CAP
1 la_data_out[29] 0.000836536
2 wbs_dat_o[29] 0.0007088
3 *537:module_status_flags_out[29] 0.000657583
4 *291:35 0.0105527
5 *291:33 0.0106804
6 *291:31 0.0485674
7 *291:29 0.0494002
8 *291:19 0.0121009
9 *291:17 0.0112681
10 *291:15 0.0148727
11 *291:13 0.0148727
12 *291:11 0.0175372
13 *291:9 0.0181948
14 la_data_out[29] *292:41 0.00029896
15 *291:9 *351:17 0
16 *291:11 *329:11 0.00210078
17 *291:11 *333:11 6.3124e-06
18 *291:11 *363:19 0.00718043
19 *291:19 *296:29 0
20 *291:31 *296:139 0
21 *291:31 *296:141 0
22 *291:31 *299:205 0
23 *291:35 *292:41 0.0439474
24 *291:35 *364:23 0.000374809
25 la_data_out[27] *291:35 6.9281e-05
26 *537:rf_adc_i_in[3] *291:9 0
27 *71:5 *291:15 0.0474688
28 *126:11 *291:11 0.00775271
29 *249:17 *291:35 0.00270094
30 *277:11 *291:11 0.017861
31 *279:11 *291:11 0.00107704
32 *281:11 *291:11 0
33 *284:13 *291:29 0.000760784
34 *285:21 *291:29 0.00242032
35 *285:31 *291:35 0.000836618
36 *289:11 *291:11 0.00137884
37 *289:27 *291:35 0.0122957
38 *290:11 *291:11 0.000283549
39 *290:15 *291:15 0.0816202
40 *290:21 *291:19 0.00966733
41 *290:33 *291:35 0.00618653
*RES
1 *537:module_status_flags_out[29] *291:9 11.2325 
2 *291:9 *291:11 458.955 
3 *291:11 *291:13 2 
4 *291:13 *291:15 913.005 
5 *291:15 *291:17 2 
6 *291:17 *291:19 197.1 
7 *291:19 *291:29 11.1598 
8 *291:29 *291:31 847.852 
9 *291:31 *291:33 2 
10 *291:33 *291:35 418.245 
11 *291:35 wbs_dat_o[29] 12.635 
12 *291:33 la_data_out[29] 15.5 
*END

*D_NET *292 0.698971
*CONN
*P wbs_dat_o[30] O
*P la_data_out[30] O
*I *537:module_status_flags_out[30] O *D phase_099_top_integration
*CAP
1 wbs_dat_o[30] 0.000692601
2 la_data_out[30] 0.000709392
3 *537:module_status_flags_out[30] 0.000456052
4 *292:41 0.0073177
5 *292:39 0.0066251
6 *292:31 0.000745421
7 *292:27 0.0109393
8 *292:25 0.0111379
9 *292:19 0.00559143
10 *292:17 0.0053569
11 *292:15 0.0246561
12 *292:13 0.0246561
13 *292:11 0.00164566
14 *292:9 0.00210171
15 *292:9 *320:13 0.000232999
16 *292:11 *332:13 0.00280546
17 *292:15 *295:29 2.53191e-06
18 *292:15 *295:31 0.0159407
19 *292:15 *298:15 8.42043e-05
20 *292:15 *320:15 0
21 *292:15 *326:15 0.000127843
22 *292:15 *332:15 0.157443
23 *292:15 *345:15 0.156851
24 *292:19 la_data_out[69] 0.00184652
25 *292:19 *330:19 0
26 *292:19 *338:42 0
27 *292:19 *340:22 0
28 *292:19 *350:21 0.0166982
29 *292:25 la_data_out[69] 0
30 *292:27 la_data_out[37] 0.000852573
31 *292:27 *293:29 0.00135639
32 *292:27 *294:13 0.0439393
33 *292:27 *294:23 0.0102133
34 la_data_out[29] *292:41 0.00029896
35 *61:21 *292:11 0.0133162
36 *63:21 *292:11 0.0133162
37 *76:19 *292:15 0.00592214
38 *216:25 *292:41 0.00738073
39 *238:25 *292:41 0.00148674
40 *249:17 *292:27 0.057075
41 *249:17 *292:41 0.00270087
42 *285:29 *292:41 0.000196699
43 *285:31 *292:41 0.0356007
44 *290:33 *292:41 0.00670334
45 *291:35 *292:41 0.0439474
*RES
1 *537:module_status_flags_out[30] *292:9 10.1075 
2 *292:9 *292:11 120.51 
3 *292:11 *292:13 2 
4 *292:13 *292:15 1761.9 
5 *292:15 *292:17 2 
6 *292:17 *292:19 151.215 
7 *292:19 *292:25 6.0475 
8 *292:25 *292:27 87.3215 
9 *292:27 *292:31 0.9875 
10 *292:31 la_data_out[30] 10.38 
11 *292:31 *292:39 2 
12 *292:39 *292:41 421.35 
13 *292:41 wbs_dat_o[30] 12.38 
*END

*D_NET *293 0.364566
*CONN
*P wbs_dat_o[31] O
*P la_data_out[31] O
*I *537:module_status_flags_out[31] O *D phase_099_top_integration
*CAP
1 wbs_dat_o[31] 0.000757898
2 la_data_out[31] 0.000909317
3 *537:module_status_flags_out[31] 0.000108613
4 *293:29 0.0117366
5 *293:27 0.0109787
6 *293:17 0.00394003
7 *293:15 0.00303072
8 *293:13 0.0425662
9 *293:11 0.0425662
10 *293:9 0.0279342
11 *293:7 0.0280428
12 *293:9 *298:23 0.0166208
13 *293:9 *302:9 0.0758684
14 *293:9 *326:15 0
15 *293:29 la_data_out[37] 0.00116612
16 wbs_dat_o[27] wbs_dat_o[31] 0
17 *205:9 *293:29 0
18 *249:17 *293:29 0.00158249
19 *275:11 *293:9 0.00602215
20 *288:31 *293:29 0.0391059
21 *289:27 *293:29 0.0082504
22 *290:33 *293:29 0.0420222
23 *292:27 *293:29 0.00135639
*RES
1 *537:module_status_flags_out[31] *293:7 0.664667 
2 *293:7 *293:9 849.255 
3 *293:9 *293:11 0.5 
4 *293:11 *293:13 111.153 
5 *293:13 *293:15 0.5 
6 *293:15 *293:17 52.125 
7 *293:17 la_data_out[31] 12.7575 
8 *293:17 *293:27 0.5 
9 *293:27 *293:29 70.9485 
10 *293:29 wbs_dat_o[31] 11.7725 
*END

*D_NET *294 0.386427
*CONN
*P user_irq[0] O
*P la_data_out[32] O
*I *537:module_status_flags_out[32] O *D phase_099_top_integration
*CAP
1 user_irq[0] 0.000632497
2 la_data_out[32] 0.000772004
3 *537:module_status_flags_out[32] 8.17048e-05
4 *294:23 0.0320963
5 *294:13 0.00949706
6 *294:11 0.0401889
7 *294:9 0.0470086
8 *294:7 0.0470903
9 *294:9 la_data_out[62] 0
10 *294:9 *317:107 0.000781984
11 *294:13 la_data_out[36] 0.00187088
12 *294:13 la_data_out[37] 0.00737661
13 *294:23 *298:35 0.00157039
14 *294:23 *298:39 0.00446191
15 *294:23 *455:9 0.00561454
16 *193:9 *294:23 0.0122419
17 *227:17 *294:13 0.0315701
18 *227:17 *294:23 0.0603637
19 *249:17 *294:23 0.0290551
20 *276:11 *294:7 0
21 *276:11 *294:9 0
22 *292:27 *294:13 0.0439393
23 *292:27 *294:23 0.0102133
*RES
1 *537:module_status_flags_out[32] *294:7 1.35 
2 *294:7 *294:9 856.905 
3 *294:9 *294:11 0.5 
4 *294:11 *294:13 67.2195 
5 *294:13 la_data_out[32] 11.7725 
6 *294:11 *294:23 148.501 
7 *294:23 user_irq[0] 11.7725 
*END

*D_NET *295 0.716729
*CONN
*P user_irq[1] O
*P la_data_out[33] O
*I *537:module_status_flags_out[33] O *D phase_099_top_integration
*CAP
1 user_irq[1] 0.000578532
2 la_data_out[33] 0.000714624
3 *537:module_status_flags_out[33] 0.00270724
4 *295:53 0.0229995
5 *295:43 0.0177811
6 *295:41 0.0396946
7 *295:31 0.0618557
8 *295:29 0.0620432
9 *295:19 0.0012326
10 *295:17 0.00354511
11 *295:17 *316:9 0
12 *295:17 *316:11 0.00225871
13 *295:17 *320:13 0.00701708
14 *295:17 *329:11 0.00207031
15 *295:17 *332:13 0.00174636
16 *295:19 *315:11 0.00548506
17 *295:19 *320:13 0.00151193
18 *295:19 *329:11 0.00623544
19 *295:29 *326:11 5.40381e-05
20 *295:29 *330:13 2.59828e-05
21 *295:29 *330:15 8.84155e-05
22 *295:29 *332:15 3.49259e-05
23 *295:29 *341:13 7.61315e-05
24 *295:31 *298:23 0.109901
25 *295:31 *309:37 0
26 *295:31 *317:31 0.0111375
27 *295:31 *320:15 0.00781913
28 *295:31 *326:15 0.0264852
29 *295:31 *330:15 0.022948
30 *295:31 *332:15 0.011474
31 *295:31 *345:15 0.0171295
32 *295:41 *298:33 4.00045e-05
33 *295:41 *331:15 0
34 *295:41 *345:15 7.34742e-05
35 *295:43 *298:39 0.00424119
36 *295:43 *331:23 0.0177717
37 *295:53 *296:227 0.00151621
38 *295:53 *329:19 0
39 *295:53 *331:23 0.00031042
40 *295:53 *455:9 0.00267894
41 *31:9 *295:29 0
42 *31:9 *295:31 0.000890142
43 *31:13 *295:17 0.00998072
44 *61:9 *295:31 0.0212713
45 *61:21 *295:19 0.000440915
46 *64:13 *295:29 0
47 *76:19 *295:31 0.0165568
48 *76:21 *295:31 0.0234536
49 *191:19 *295:53 0.0153259
50 *193:9 *295:53 0.00984392
51 *205:17 *295:41 2.17773e-05
52 *216:25 *295:43 0.0683151
53 *216:25 *295:53 0.0313685
54 *238:25 *295:53 0.00122536
55 *249:17 *295:43 0.0146127
56 *271:27 *295:53 0.00510994
57 *275:11 *295:31 0.0090859
58 *292:15 *295:29 2.53191e-06
59 *292:15 *295:31 0.0159407
*RES
1 *537:module_status_flags_out[33] *295:17 28.5131 
2 *295:17 *295:19 57.375 
3 *295:19 *295:29 6.45423 
4 *295:29 *295:31 297.37 
5 *295:31 *295:41 6.10463 
6 *295:41 *295:43 629.04 
7 *295:43 la_data_out[33] 12.38 
8 *295:41 *295:53 639.045 
9 *295:53 user_irq[1] 12.38 
*END

*D_NET *296 0.664515
*CONN
*P user_irq[2] O
*P la_data_out[34] O
*I *537:module_status_flags_out[34] O *D phase_099_top_integration
*CAP
1 user_irq[2] 0.000518504
2 la_data_out[34] 0.000665961
3 *537:module_status_flags_out[34] 5.77428e-05
4 *296:227 0.0464643
5 *296:225 0.0459458
6 *296:213 0.00503977
7 *296:211 0.00437381
8 *296:209 0.00261609
9 *296:203 0.00293777
10 *296:197 0.0037613
11 *296:195 0.00566503
12 *296:177 0.0103402
13 *296:175 0.00811475
14 *296:173 0.00264119
15 *296:163 0.00510816
16 *296:151 0.00437204
17 *296:141 0.00495921
18 *296:139 0.00525362
19 *296:131 0.00429955
20 *296:123 0.00393262
21 *296:115 0.00392471
22 *296:97 0.00718361
23 *296:95 0.00593878
24 *296:91 0.0026367
25 *296:81 0.0045111
26 *296:79 0.00316689
27 *296:75 0.00277881
28 *296:63 0.00461948
29 *296:51 0.002761
30 *296:47 0.00219845
31 *296:29 0.00532356
32 *296:27 0.00440275
33 *296:17 0.0163363
34 *296:15 0.0159704
35 *296:9 0.0191292
36 *296:7 0.0187504
37 *296:9 *344:11 0.000335245
38 *296:9 *344:19 0.00617413
39 *296:9 *353:11 0.0166336
40 *296:17 *299:21 0.0778456
41 *296:27 *299:51 8.64793e-05
42 *296:47 *308:45 0.00152004
43 *296:51 *308:47 0.00230213
44 io_oeb[4] *296:91 0.00128434
45 *537:rf_adc_i_in[1] *296:7 1.75155e-05
46 *537:rf_adc_q_in[10] *296:17 0
47 *537:rf_adc_q_in[7] *296:29 0.000294978
48 *76:9 *296:29 0.000287293
49 *77:5 *296:47 0.000238332
50 *78:5 *296:51 0.000985305
51 *94:5 *296:197 0.00335931
52 *144:21 *296:115 0.00133196
53 *191:19 *296:227 0.0161621
54 *192:9 *296:227 0.0582369
55 *260:25 *296:227 0.103991
56 *274:11 *296:9 0.0075465
57 *281:15 *296:17 0.0776668
58 *283:17 *296:63 0
59 *290:23 *296:131 0
60 *291:19 *296:29 0
61 *291:31 *296:139 0
62 *291:31 *296:141 0
63 *295:53 *296:227 0.00151621
*RES
1 *537:module_status_flags_out[34] *296:7 2.945 
2 *296:7 *296:9 381.848 
3 *296:9 *296:15 8.24 
4 *296:15 *296:17 900 
5 *296:17 *296:27 19.185 
6 *296:27 *296:29 62.895 
7 *296:29 *296:47 43.29 
8 *296:47 *296:51 27.86 
9 *296:51 *296:63 43.435 
10 *296:63 *296:75 45.535 
11 *296:75 *296:79 9.695 
12 *296:79 *296:81 49.32 
13 *296:81 *296:91 36.525 
14 *296:91 *296:95 16.25 
15 *296:95 *296:97 92.415 
16 *296:97 *296:115 48.83 
17 *296:115 *296:123 36.775 
18 *296:123 *296:131 40.06 
19 *296:131 *296:139 43.3 
20 *296:139 *296:141 54.42 
21 *296:141 *296:151 40.425 
22 *296:151 *296:163 49.41 
23 *296:163 *296:173 49.49 
24 *296:173 *296:175 2 
25 *296:175 *296:177 147.495 
26 *296:177 *296:195 47.405 
27 *296:195 *296:197 87.825 
28 *296:197 *296:203 9.28 
29 *296:203 *296:209 48.695 
30 *296:209 *296:211 2 
31 *296:211 *296:213 77.625 
32 *296:213 la_data_out[34] 9.915 
33 *296:213 *296:225 2 
34 *296:225 *296:227 1259.01 
35 *296:227 user_irq[2] 11.36 
*END

*D_NET *297 0.180419
*CONN
*P la_data_out[35] O
*I *537:module_status_flags_out[35] O *D phase_099_top_integration
*CAP
1 la_data_out[35] 0.0474917
2 *537:module_status_flags_out[35] 0.000384241
3 *297:23 0.0506545
4 *297:13 0.0169486
5 *297:11 0.0141701
6 *297:13 *300:15 0.000636092
7 *297:13 *303:15 0.000947889
8 *297:13 *304:19 0
9 *297:13 *310:15 0.000662147
10 *297:13 *311:15 0.00579698
11 *297:13 *314:19 0
12 *297:23 la_data_out[43] 0
13 *284:13 *297:23 0.00384167
14 *285:13 *297:13 0.0265639
15 *285:21 *297:23 0.0123214
*RES
1 *537:module_status_flags_out[35] *297:11 8.6825 
2 *297:11 *297:13 331.65 
3 *297:13 *297:23 25.9012 
4 *297:23 la_data_out[35] 858.383 
*END

*D_NET *298 0.498713
*CONN
*P la_data_out[36] O
*I *537:module_status_flags_out[36] O *D phase_099_top_integration
*CAP
1 la_data_out[36] 0.0042747
2 *537:module_status_flags_out[36] 0.000573425
3 *298:39 0.0229295
4 *298:37 0.0186769
5 *298:35 0.00153801
6 *298:33 0.0018924
7 *298:23 0.0360093
8 *298:21 0.0357405
9 *298:15 0.00806358
10 *298:13 0.00795594
11 *298:11 0.00138558
12 *298:9 0.001959
13 la_data_out[36] la_data_out[37] 0.000819511
14 la_data_out[36] la_data_out[43] 0
15 *298:9 *334:13 0
16 *298:11 *330:13 0.00136898
17 *298:11 *357:11 0.0038924
18 *298:15 *320:15 0.0511872
19 *298:15 *326:15 0.0509753
20 *298:21 *302:7 3.6581e-05
21 *298:23 *302:9 0.026061
22 *298:23 *317:31 0.00296917
23 *298:33 la_data_out[69] 5.04342e-05
24 *298:33 *330:15 0.000143297
25 *298:33 *356:13 0
26 *298:35 la_data_out[80] 0.000196699
27 *298:35 *329:19 0.00418837
28 *298:35 *331:23 0.00300325
29 *298:39 *329:19 0.0131071
30 *298:39 *331:23 0.00320766
31 *52:21 *298:11 0.00655334
32 *61:9 *298:23 0.0391088
33 *205:9 la_data_out[36] 0.00350879
34 *205:15 la_data_out[36] 0.000581275
35 *205:17 *298:33 7.51246e-05
36 *227:17 la_data_out[36] 0.00188986
37 *227:17 *298:39 0.00599939
38 *292:15 *298:15 8.42043e-05
39 *293:9 *298:23 0.0166208
40 *294:13 la_data_out[36] 0.00187088
41 *294:23 *298:35 0.00157039
42 *294:23 *298:39 0.00446191
43 *295:31 *298:23 0.109901
44 *295:41 *298:33 4.00045e-05
45 *295:43 *298:39 0.00424119
*RES
1 *537:module_status_flags_out[36] *298:9 10.0475 
2 *298:9 *298:11 59.445 
3 *298:11 *298:13 2 
4 *298:13 *298:15 572.198 
5 *298:15 *298:21 1.18367 
6 *298:21 *298:23 200.729 
7 *298:23 *298:33 6.06077 
8 *298:33 *298:35 67.5525 
9 *298:35 *298:37 0.36 
10 *298:37 *298:39 429.802 
11 *298:39 la_data_out[36] 32.3006 
*END

*D_NET *299 0.374964
*CONN
*P la_data_out[37] O
*I *537:module_status_flags_out[37] O *D phase_099_top_integration
*CAP
1 la_data_out[37] 0.00404593
2 *537:module_status_flags_out[37] 0.00165153
3 *299:205 0.00695663
4 *299:193 0.00449523
5 *299:179 0.00462252
6 *299:177 0.00559933
7 *299:155 0.004765
8 *299:143 0.00900421
9 *299:141 0.0122219
10 *299:121 0.0104967
11 *299:119 0.00549021
12 *299:113 0.00387308
13 *299:111 0.00417
14 *299:105 0.00442652
15 *299:103 0.00459285
16 *299:95 0.00463859
17 *299:73 0.0110099
18 *299:71 0.0101169
19 *299:51 0.0066994
20 *299:21 0.0371946
21 *299:19 0.0333627
22 *299:17 0.0153714
23 *299:15 0.0170229
24 *299:15 *338:16 0.00236134
25 *299:15 *353:11 0.000439362
26 *299:17 *325:16 0.00127536
27 *299:17 *338:16 0.000641347
28 *299:17 *344:19 0.0158081
29 *299:21 *537:clk_2p4g 5.32876e-05
30 *299:71 *355:13 0
31 *299:71 *364:13 0
32 io_oeb[0] *299:177 0.000926229
33 io_oeb[37] *299:205 0.00229682
34 la_data_out[36] la_data_out[37] 0.000819511
35 *537:rf_adc_i_in[5] *299:15 2.61864e-05
36 *537:rf_adc_q_in[5] *299:51 0.000967263
37 *77:5 *299:95 0.000627516
38 *78:5 *299:103 0
39 *81:5 *299:121 0
40 *88:5 *299:205 0
41 *89:9 *299:193 5.99807e-05
42 *91:5 *299:205 0
43 *92:9 *299:155 0
44 *92:9 *299:177 0.000212414
45 *101:9 *299:177 0.000288881
46 *102:9 *299:177 0.000179605
47 *103:9 *299:177 0.000177979
48 *105:9 *299:155 6.91517e-05
49 *105:9 *299:177 0
50 *130:10 *299:17 0.0103998
51 *133:13 *299:111 0.00176831
52 *144:21 *299:177 0.000747724
53 *205:9 la_data_out[37] 0.00154503
54 *274:11 *299:15 0.00133736
55 *275:15 *299:51 0.00025863
56 *276:13 *299:51 0.000942183
57 *277:27 *299:51 0.00079449
58 *277:29 *299:51 0.000723391
59 *279:37 *299:73 0
60 *280:17 *299:95 0
61 *281:35 *299:51 1.92101e-05
62 *281:37 *299:95 0
63 *281:37 *299:103 0.000390745
64 *283:17 *299:121 0.013186
65 *288:17 *299:155 0.00418924
66 *290:23 *299:179 0
67 *290:23 *299:193 0.00227642
68 *291:31 *299:205 0
69 *292:27 la_data_out[37] 0.000852573
70 *293:29 la_data_out[37] 0.00116612
71 *294:13 la_data_out[37] 0.00737661
72 *296:17 *299:21 0.0778456
73 *296:27 *299:51 8.64793e-05
*RES
1 *537:module_status_flags_out[37] *299:15 8.36967 
2 *299:15 *299:17 64.8014 
3 *299:17 *299:19 0.5 
4 *299:19 *299:21 898.725 
5 *299:21 *299:51 46.4274 
6 *299:51 *299:71 34.3726 
7 *299:71 *299:73 131.685 
8 *299:73 *299:95 44.4284 
9 *299:95 *299:103 12.5666 
10 *299:103 *299:105 64.875 
11 *299:105 *299:111 3.66 
12 *299:111 *299:113 60.285 
13 *299:113 *299:119 1.97027 
14 *299:119 *299:121 147.495 
15 *299:121 *299:141 42.3321 
16 *299:141 *299:143 123.525 
17 *299:143 *299:155 49.912 
18 *299:155 *299:177 36.9711 
19 *299:177 *299:179 52.635 
20 *299:179 *299:193 29.429 
21 *299:193 *299:205 38.904 
22 *299:205 la_data_out[37] 27.7612 
*END

*D_NET *300 0.120714
*CONN
*P la_data_out[38] O
*I *537:module_status_flags_out[38] O *D phase_099_top_integration
*CAP
1 la_data_out[38] 0.0495796
2 *537:module_status_flags_out[38] 0.00345752
3 *300:15 0.0530371
4 *300:15 *303:15 0.00589719
5 *300:15 *305:13 0.00296334
6 *300:15 *307:33 0.000313159
7 *76:9 *300:15 0
8 *280:15 *300:15 0.00176666
9 *287:13 *300:15 0.00306319
10 *297:13 *300:15 0.000636092
*RES
1 *537:module_status_flags_out[38] *300:15 23.835 
2 *300:15 la_data_out[38] 862.463 
*END

*D_NET *301 0.103374
*CONN
*P la_data_out[39] O
*I *537:module_status_flags_out[39] O *D phase_099_top_integration
*CAP
1 la_data_out[39] 0.00210507
2 *537:module_status_flags_out[39] 7.59912e-05
3 *301:9 0.0500602
4 *301:7 0.0480311
5 la_data_out[39] *324:13 0.000104838
6 *301:7 *358:7 0
7 *301:9 *358:9 0
8 *194:9 la_data_out[39] 0
9 *227:9 la_data_out[39] 0.00299648
*RES
1 *537:module_status_flags_out[39] *301:7 1.35 
2 *301:7 *301:9 852.825 
3 *301:9 la_data_out[39] 20.8188 
*END

*D_NET *302 0.280544
*CONN
*P la_data_out[40] O
*I *537:module_status_flags_out[40] O *D phase_099_top_integration
*CAP
1 la_data_out[40] 0.00290731
2 *537:module_status_flags_out[40] 0.00011373
3 *302:13 0.0370856
4 *302:11 0.0341783
5 *302:9 0.0405455
6 *302:7 0.0406592
7 *302:9 *317:31 0.0129909
8 *302:9 *326:15 0
9 *302:9 *331:15 0
10 *302:13 *308:165 0.00227411
11 *302:13 *312:123 0.000246846
12 *275:11 *302:9 0.00757701
13 *293:9 *302:9 0.0758684
14 *298:21 *302:7 3.6581e-05
15 *298:23 *302:9 0.026061
*RES
1 *537:module_status_flags_out[40] *302:7 0.722933 
2 *302:7 *302:9 1155.77 
3 *302:9 *302:11 0.5 
4 *302:11 *302:13 90.8175 
5 *302:13 la_data_out[40] 47.9825 
*END

*D_NET *303 0.144182
*CONN
*P la_data_out[41] O
*I *537:module_status_flags_out[41] O *D phase_099_top_integration
*CAP
1 la_data_out[41] 0.0496141
2 *537:module_status_flags_out[41] 0.00852139
3 *303:15 0.0581355
4 *303:15 *305:13 0.0024403
5 *303:15 *310:15 0.00279977
6 *303:15 *311:15 0.011411
7 *76:9 *303:15 0.0044145
8 *297:13 *303:15 0.000947889
9 *300:15 *303:15 0.00589719
*RES
1 *537:module_status_flags_out[41] *303:15 45.1167 
2 *303:15 la_data_out[41] 862.972 
*END

*D_NET *304 0.440458
*CONN
*P la_data_out[42] O
*I *537:module_status_flags_out[42] O *D phase_099_top_integration
*CAP
1 la_data_out[42] 0.0494242
2 *537:module_status_flags_out[42] 6.72307e-05
3 *304:21 0.0494242
4 *304:19 0.0217663
5 *304:17 0.0217663
6 *304:15 0.0126363
7 *304:13 0.0126363
8 *304:11 0.00725917
9 *304:9 0.0073264
10 la_data_out[42] *308:157 0
11 *304:11 *314:11 0.0220001
12 *304:11 *353:11 0
13 *304:15 la_data_out[81] 0.0810248
14 *304:15 *323:25 0.081019
15 *304:15 *338:30 0.00672383
16 *304:19 *313:15 0.00118921
17 *304:19 *314:19 0.0425324
18 *304:19 *327:15 0.000936771
19 *304:19 *359:13 0.00418281
20 *304:19 *455:17 0
21 *67:17 *304:11 0.00509824
22 *131:9 *304:15 0.00881946
23 *284:13 *304:19 0.00201954
24 *285:13 *304:19 0
25 *287:13 *304:19 0.00260549
26 *297:13 *304:19 0
*RES
1 *537:module_status_flags_out[42] *304:9 2.8025 
2 *304:9 *304:11 202.62 
3 *304:11 *304:13 2 
4 *304:13 *304:15 906.885 
5 *304:15 *304:17 2 
6 *304:17 *304:19 518.295 
7 *304:19 *304:21 2 
8 *304:21 la_data_out[42] 860.295 
*END

*D_NET *305 0.175429
*CONN
*P la_data_out[43] O
*I *537:module_status_flags_out[43] O *D phase_099_top_integration
*CAP
1 la_data_out[43] 0.047727
2 *537:module_status_flags_out[43] 0.00044935
3 *305:15 0.047727
4 *305:13 0.00702474
5 *305:11 0.00747409
6 la_data_out[43] *308:157 0
7 *305:11 *359:11 0
8 *305:13 *310:15 0.00279977
9 *305:13 *311:15 0.0247424
10 *305:13 *321:26 0.0114528
11 la_data_out[36] la_data_out[43] 0
12 *284:13 *305:13 0.0017393
13 *287:13 *305:13 0.018166
14 *288:13 *305:13 0.000722377
15 *297:23 la_data_out[43] 0
16 *300:15 *305:13 0.00296334
17 *303:15 *305:13 0.0024403
*RES
1 *537:module_status_flags_out[43] *305:11 8.075 
2 *305:11 *305:13 53.4685 
3 *305:13 *305:15 0.5 
4 *305:15 la_data_out[43] 861.953 
*END

*D_NET *306 0.0965149
*CONN
*P la_data_out[44] O
*I *537:module_status_flags_out[44] O *D phase_099_top_integration
*CAP
1 la_data_out[44] 9.93722e-05
2 *537:module_status_flags_out[44] 7.52283e-05
3 *306:9 0.0481822
4 *306:7 0.0481581
*RES
1 *537:module_status_flags_out[44] *306:7 1.35 
2 *306:7 *306:9 868.125 
3 *306:9 la_data_out[44] 1.0875 
*END

*D_NET *307 0.421721
*CONN
*P la_data_out[45] O
*I *537:module_status_flags_out[45] O *D phase_099_top_integration
*CAP
1 la_data_out[45] 0.0454282
2 *537:module_status_flags_out[45] 0.000637206
3 *307:33 0.0480467
4 *307:29 0.00898472
5 *307:19 0.0153953
6 *307:17 0.00902909
7 *307:15 0.0158121
8 *307:13 0.0158121
9 *307:11 0.00228172
10 *307:9 0.00291892
11 *307:11 *330:13 0.00353213
12 *307:15 *331:15 0.000502525
13 *307:15 *338:38 7.25022e-05
14 *307:15 *340:18 0.0774902
15 *307:15 *341:15 0.0783128
16 *307:19 *315:29 0
17 *307:19 *320:21 0.0086055
18 *307:19 *320:37 0.00102703
19 *307:19 *341:29 0.00219486
20 *307:29 *315:29 0
21 *307:29 *315:33 0.0024678
22 *307:29 *316:19 0
23 *30:21 *307:11 0.0179002
24 *38:9 *307:19 0.0371074
25 *38:9 *307:29 0.00994815
26 *41:21 *307:11 0.0179002
27 *300:15 *307:33 0.000313159
*RES
1 *537:module_status_flags_out[45] *307:9 10.8125 
2 *307:9 *307:11 162.255 
3 *307:11 *307:13 2 
4 *307:13 *307:15 906.503 
5 *307:15 *307:17 0.5 
6 *307:17 *307:19 55.2457 
7 *307:19 *307:29 25.4419 
8 *307:29 *307:33 47.88 
9 *307:33 la_data_out[45] 821.602 
*END

*D_NET *308 0.401702
*CONN
*P la_data_out[46] O
*I *537:module_status_flags_out[46] O *D phase_099_top_integration
*CAP
1 la_data_out[46] 0.0029461
2 *537:module_status_flags_out[46] 0.000271838
3 *308:165 0.00526246
4 *308:157 0.00781393
5 *308:135 0.00828118
6 *308:133 0.00351269
7 *308:127 0.0133709
8 *308:125 0.0159007
9 *308:111 0.00652289
10 *308:109 0.00825617
11 *308:95 0.0102135
12 *308:93 0.0124824
13 *308:79 0.00927078
14 *308:77 0.00390853
15 *308:69 0.00414549
16 *308:61 0.00807473
17 *308:47 0.00844374
18 *308:45 0.00359117
19 *308:37 0.0113198
20 *308:23 0.0348044
21 *308:21 0.0260803
22 *308:11 0.00939584
23 *308:9 0.00804745
24 *308:11 *317:19 0.00181333
25 *308:11 *322:27 0.0234585
26 *308:79 *464:13 0.0020296
27 *308:125 *324:9 0
28 io_oeb[2] *308:125 0
29 io_oeb[33] *308:77 0.000855652
30 io_oeb[4] *308:69 0.000223244
31 la_data_out[42] *308:157 0
32 la_data_out[43] *308:157 0
33 *537:rf_adc_i_in[0] *308:9 0
34 *537:rf_adc_q_in[7] *308:37 0.00132769
35 *537:rf_adc_q_in[8] *308:37 0.00277484
36 *537:rf_adc_q_in[9] *308:37 0.000138852
37 *38:9 *308:37 0.0012731
38 *72:9 *308:157 0.000549092
39 *76:9 *308:37 0.00142701
40 *77:5 *308:45 0.00166198
41 *77:19 *308:37 2.05487e-06
42 *77:21 *308:23 0
43 *78:5 *308:47 0
44 *80:27 *308:37 0.0170733
45 *94:5 *308:95 0.00518783
46 *105:9 *308:133 0
47 *127:16 *308:21 0
48 *135:11 *308:11 0.0424888
49 *275:15 *308:45 0.000308568
50 *276:13 *308:45 0.000242493
51 *279:35 *308:37 3.43021e-05
52 *281:37 *308:47 0
53 *282:17 *308:61 0.00301034
54 *287:17 *308:77 0
55 *289:15 *308:23 0.067491
56 *289:15 *308:37 0.000317033
57 *290:21 *308:37 0
58 *296:47 *308:45 0.00152004
59 *296:51 *308:47 0.00230213
60 *302:13 *308:165 0.00227411
*RES
1 *537:module_status_flags_out[46] *308:9 4.745 
2 *308:9 *308:11 63.0534 
3 *308:11 *308:21 5.4824 
4 *308:21 *308:23 118.902 
5 *308:23 *308:37 45.339 
6 *308:37 *308:45 22.1106 
7 *308:45 *308:47 56.715 
8 *308:47 *308:61 47.203 
9 *308:61 *308:69 36.1431 
10 *308:69 *308:77 22.0229 
11 *308:77 *308:79 52.125 
12 *308:79 *308:93 35.763 
13 *308:93 *308:95 134.745 
14 *308:95 *308:109 35.255 
15 *308:109 *308:111 59.265 
16 *308:111 *308:125 33.071 
17 *308:125 *308:127 230.115 
18 *308:127 *308:133 2.786 
19 *308:133 *308:135 49.575 
20 *308:135 *308:157 49.658 
21 *308:157 *308:165 32.0042 
22 *308:165 la_data_out[46] 47.9925 
*END

*D_NET *309 0.424341
*CONN
*P la_data_out[47] O
*I *537:module_status_flags_out[47] O *D phase_099_top_integration
*CAP
1 la_data_out[47] 0.00097587
2 *537:module_status_flags_out[47] 0.00020853
3 *309:149 0.0137399
4 *309:145 0.0130933
5 *309:139 0.00352247
6 *309:137 0.00319321
7 *309:135 0.00518738
8 *309:133 0.00688389
9 *309:119 0.0209287
10 *309:117 0.0195409
11 *309:113 0.00212261
12 *309:109 0.00242305
13 *309:105 0.00312491
14 *309:101 0.00372791
15 *309:95 0.00625092
16 *309:93 0.00565246
17 *309:87 0.00429947
18 *309:85 0.00399529
19 *309:79 0.00387319
20 *309:77 0.00436636
21 *309:69 0.00306821
22 *309:51 0.00558077
23 *309:37 0.0126193
24 *309:15 0.0239596
25 *309:13 0.0146555
26 *309:11 0.0059166
27 *309:9 0.00612513
28 *309:11 *312:9 0.00871177
29 *309:11 *344:11 0.00888433
30 *309:11 *351:19 0.0426474
31 *309:11 *352:21 0.0277112
32 *309:15 *316:15 0.00890846
33 *309:15 *319:9 0.0461109
34 *309:15 *334:15 0.0250831
35 *309:37 *317:39 9.77986e-05
36 *309:37 *317:41 0.018731
37 *309:37 *320:15 3.98098e-05
38 *309:37 *326:15 4.11715e-05
39 *309:51 *337:15 0
40 *309:95 *318:41 0.00232883
41 *309:113 la_data_out[73] 0.00178473
42 *309:133 la_data_out[72] 0.0019065
43 *309:139 *343:15 0.0027288
44 *309:145 *350:19 0
45 *309:149 la_data_out[78] 4.67249e-05
46 *309:149 *324:13 0
47 *309:149 *349:13 0
48 *309:149 *356:13 0.0038718
49 *32:9 *309:9 4.36329e-05
50 *76:19 *309:37 2.87821e-05
51 *205:17 *309:149 0.00795194
52 *282:9 *309:15 0.0176474
53 *295:31 *309:37 0
*RES
1 *537:module_status_flags_out[47] *309:9 5.1125 
2 *309:9 *309:11 386.85 
3 *309:11 *309:13 2 
4 *309:13 *309:15 714.105 
5 *309:15 *309:37 47.6129 
6 *309:37 *309:51 48.0936 
7 *309:51 *309:69 48.94 
8 *309:69 *309:77 15.68 
9 *309:77 *309:79 62.325 
10 *309:79 *309:85 9.28 
11 *309:85 *309:87 66.915 
12 *309:87 *309:93 14.455 
13 *309:93 *309:95 101.34 
14 *309:95 *309:101 24.805 
15 *309:101 *309:105 45.965 
16 *309:105 *309:109 12.455 
17 *309:109 *309:113 48.77 
18 *309:113 *309:117 7.28 
19 *309:117 *309:119 336.195 
20 *309:119 *309:133 45.005 
21 *309:133 *309:135 93.18 
22 *309:135 *309:137 2 
23 *309:137 *309:139 54.615 
24 *309:139 *309:145 7.5775 
25 *309:145 *309:149 46.1025 
26 *309:149 la_data_out[47] 14.3325 
*END

*D_NET *310 0.107679
*CONN
*P la_data_out[48] O
*I *537:module_status_flags_out[48] O *D phase_099_top_integration
*CAP
1 la_data_out[48] 0.0495936
2 *537:module_status_flags_out[48] 0.000965042
3 *310:15 0.0505586
4 *310:15 *311:23 4.04441e-06
5 *285:13 *310:15 0.000295725
6 *297:13 *310:15 0.000662147
7 *303:15 *310:15 0.00279977
8 *305:13 *310:15 0.00279977
*RES
1 *537:module_status_flags_out[48] *310:15 12.3565 
2 *310:15 la_data_out[48] 862.463 
*END

*D_NET *311 0.172531
*CONN
*P la_data_out[49] O
*I *537:module_status_flags_out[49] O *D phase_099_top_integration
*CAP
1 la_data_out[49] 0.0475427
2 *537:module_status_flags_out[49] 0.000417948
3 *311:23 0.0482806
4 *311:15 0.0117525
5 *311:11 0.0114326
6 *311:15 *321:26 0.00377556
7 *311:15 *360:15 0.000661862
8 *76:9 *311:15 0
9 *273:13 *311:23 0
10 *284:13 *311:23 0.00146787
11 *285:13 *311:15 0.00513749
12 *285:19 la_data_out[49] 0.000107811
13 *297:13 *311:15 0.00579698
14 *303:15 *311:15 0.011411
15 *305:13 *311:15 0.0247424
16 *310:15 *311:23 4.04441e-06
*RES
1 *537:module_status_flags_out[49] *311:11 7.565 
2 *311:11 *311:15 48.9576 
3 *311:15 *311:23 5.84887 
4 *311:23 la_data_out[49] 859.912 
*END

*D_NET *312 0.491521
*CONN
*P la_data_out[50] O
*I *537:module_status_flags_out[50] O *D phase_099_top_integration
*CAP
1 la_data_out[50] 0.00298491
2 *537:module_status_flags_out[50] 7.5025e-05
3 *312:123 0.00644855
4 *312:109 0.0121123
5 *312:107 0.0140377
6 *312:95 0.00795817
7 *312:91 0.00673366
8 *312:77 0.0183876
9 *312:75 0.0201832
10 *312:61 0.00818676
11 *312:59 0.00299311
12 *312:53 0.00492594
13 *312:51 0.00492508
14 *312:45 0.00458788
15 *312:43 0.00742265
16 *312:39 0.00655259
17 *312:29 0.00631751
18 *312:27 0.00683622
19 *312:13 0.0160918
20 *312:11 0.0126209
21 *312:9 0.0129935
22 *312:7 0.0130686
23 *312:9 *318:11 0.0367743
24 *312:9 *323:23 0.000500635
25 *312:9 *338:16 0.00465976
26 *312:9 *340:6 0.00415523
27 *312:9 *345:13 0.0276423
28 *312:9 *346:13 0.000976358
29 *312:9 *351:19 0.00779926
30 *312:9 *352:19 0.00275759
31 *312:9 *353:11 0.00610274
32 *312:9 *362:9 0.00304339
33 *312:13 la_data_out[81] 0.000232928
34 *312:13 *318:23 0.0796049
35 *312:13 *321:22 0.0800165
36 *312:13 *329:15 0
37 *312:13 *337:9 0.000340324
38 *312:27 *321:26 0
39 *312:27 *325:22 0
40 *312:27 *334:29 6.32637e-06
41 *312:27 *341:29 2.38558e-05
42 *312:29 *336:15 0
43 *312:61 *342:9 0.00218358
44 *312:95 la_data_out[58] 0
45 *312:107 la_data_out[53] 0
46 *312:123 la_data_out[51] 0
47 *38:9 *312:27 0.00368471
48 *64:13 *312:9 3.09608e-05
49 *66:13 *312:9 3.33302e-05
50 *76:9 *312:27 0.0100682
51 *127:14 *312:9 0.0010999
52 *131:9 *312:13 0.00549729
53 *274:11 *312:9 0.00860409
54 *282:9 *312:27 0.000280335
55 *302:13 *312:123 0.000246846
56 *309:11 *312:9 0.00871177
*RES
1 *537:module_status_flags_out[50] *312:7 1.5725 
2 *312:7 *312:9 79.7759 
3 *312:9 *312:11 0.5 
4 *312:11 *312:13 900.255 
5 *312:13 *312:27 22.6045 
6 *312:27 *312:29 59.775 
7 *312:29 *312:39 42.661 
8 *312:39 *312:43 9.278 
9 *312:43 *312:45 69.465 
10 *312:45 *312:51 2.786 
11 *312:51 *312:53 75.585 
12 *312:53 *312:59 2.786 
13 *312:59 *312:61 57.225 
14 *312:61 *312:75 27.021 
15 *312:75 *312:77 248.985 
16 *312:77 *312:91 28.917 
17 *312:91 *312:95 47.015 
18 *312:95 *312:107 26.667 
19 *312:107 *312:109 150.555 
20 *312:109 *312:123 33.3767 
21 *312:123 la_data_out[50] 50.0325 
*END

*D_NET *313 0.109289
*CONN
*P la_data_out[51] O
*I *537:module_status_flags_out[51] O *D phase_099_top_integration
*CAP
1 la_data_out[51] 0.0475829
2 *537:module_status_flags_out[51] 0.00303244
3 *313:15 0.0506153
4 *273:13 *313:15 0
5 *284:13 *313:15 0.00686886
6 *287:11 *313:15 0
7 *304:19 *313:15 0.00118921
8 *312:123 la_data_out[51] 0
*RES
1 *537:module_status_flags_out[51] *313:15 20.7914 
2 *313:15 la_data_out[51] 859.912 
*END

*D_NET *314 0.3738
*CONN
*P la_data_out[52] O
*I *537:module_status_flags_out[52] O *D phase_099_top_integration
*CAP
1 la_data_out[52] 0.0476363
2 *537:module_status_flags_out[52] 0.000116266
3 *314:21 0.0476363
4 *314:19 0.0143302
5 *314:17 0.0143302
6 *314:15 0.0312292
7 *314:13 0.0312292
8 *314:11 0.00340984
9 *314:9 0.0035261
10 la_data_out[52] *349:9 0
11 *314:11 *338:18 0.0217088
12 *314:11 *353:11 0
13 *314:15 *329:15 0.0810074
14 *314:19 *327:15 0.00101402
15 *314:19 *359:13 0.00407297
16 *314:19 *455:17 0
17 *63:17 *314:15 0
18 *67:17 *314:11 0.00467851
19 *140:15 *314:15 0.000114852
20 *284:13 *314:19 0.00322785
21 *285:13 *314:19 0
22 *297:13 *314:19 0
23 *304:11 *314:11 0.0220001
24 *304:19 *314:19 0.0425324
*RES
1 *537:module_status_flags_out[52] *314:9 3.4925 
2 *314:9 *314:11 209.175 
3 *314:11 *314:13 2 
4 *314:13 *314:15 906.375 
5 *314:15 *314:17 2 
6 *314:17 *314:19 390.3 
7 *314:19 *314:21 2 
8 *314:21 la_data_out[52] 860.55 
*END

*D_NET *315 0.347374
*CONN
*P la_data_out[53] O
*I *537:module_status_flags_out[53] O *D phase_099_top_integration
*CAP
1 la_data_out[53] 0.0481408
2 *537:module_status_flags_out[53] 0.000738634
3 *315:33 0.0485317
4 *315:29 0.00811945
5 *315:21 0.0098464
6 *315:15 0.0207815
7 *315:13 0.0186637
8 *315:11 0.000894014
9 *315:9 0.00163265
10 *315:11 *320:13 0.00113233
11 *315:11 *329:11 0.000429767
12 *315:15 *316:15 0.0781815
13 *315:15 *319:9 4.73268e-05
14 *315:15 *331:15 0
15 *315:15 *338:28 0.000125643
16 *315:15 *341:15 0.0443729
17 *315:21 *316:19 0.00478615
18 *315:21 *334:29 0.00476938
19 *315:21 *338:36 5.82798e-05
20 *315:29 *316:19 0.0310481
21 *315:29 *320:21 0.00541116
22 *315:29 *320:37 0
23 *315:29 *334:29 0.00325043
24 *38:9 *315:33 0.00247903
25 *61:21 *315:11 0.00581918
26 *63:21 *315:11 0.000160726
27 *295:19 *315:11 0.00548506
28 *307:19 *315:29 0
29 *307:29 *315:29 0
30 *307:29 *315:33 0.0024678
31 *312:107 la_data_out[53] 0
*RES
1 *537:module_status_flags_out[53] *315:9 11.9975 
2 *315:9 *315:11 57.375 
3 *315:11 *315:13 2 
4 *315:13 *315:15 904.463 
5 *315:15 *315:21 13.2186 
6 *315:21 *315:29 47.6792 
7 *315:29 *315:33 4.17967 
8 *315:33 la_data_out[53] 868.583 
*END

*D_NET *316 0.379124
*CONN
*P la_data_out[54] O
*I *537:module_status_flags_out[54] O *D phase_099_top_integration
*CAP
1 la_data_out[54] 0.0430578
2 *537:module_status_flags_out[54] 0.000702002
3 *316:29 0.043513
4 *316:19 0.0154504
5 *316:17 0.0149952
6 *316:15 0.0164684
7 *316:13 0.0164684
8 *316:11 0.00540557
9 *316:9 0.00610757
10 *316:11 *329:11 0.0165853
11 *316:15 *319:9 0.0619162
12 *316:15 *334:15 0
13 *316:19 *338:36 1.26484e-05
14 *31:13 *316:11 0.00147179
15 *38:9 *316:29 1.91843e-05
16 *76:9 *316:29 1.42367e-05
17 *131:13 *316:19 0
18 *133:9 la_data_out[54] 0.011753
19 *295:17 *316:9 0
20 *295:17 *316:11 0.00225871
21 *307:29 *316:19 0
22 *309:15 *316:15 0.00890846
23 *315:15 *316:15 0.0781815
24 *315:21 *316:19 0.00478615
25 *315:29 *316:19 0.0310481
*RES
1 *537:module_status_flags_out[54] *316:9 12.0725 
2 *316:9 *316:11 152.595 
3 *316:11 *316:13 2 
4 *316:13 *316:15 904.208 
5 *316:15 *316:17 0.5 
6 *316:17 *316:19 59.9653 
7 *316:19 *316:29 2.63873 
8 *316:29 la_data_out[54] 867.052 
*END

*D_NET *317 0.449003
*CONN
*P la_data_out[55] O
*I *537:module_status_flags_out[55] O *D phase_099_top_integration
*CAP
1 la_data_out[55] 0.00273197
2 *537:module_status_flags_out[55] 0.001048
3 *317:135 0.0033656
4 *317:129 0.00536515
5 *317:127 0.00473152
6 *317:125 0.00268036
7 *317:119 0.00466857
8 *317:115 0.00424489
9 *317:107 0.00355087
10 *317:97 0.00743149
11 *317:95 0.00732768
12 *317:91 0.00288436
13 *317:83 0.00384578
14 *317:77 0.00629382
15 *317:75 0.00664381
16 *317:67 0.00436905
17 *317:63 0.00401141
18 *317:53 0.00635914
19 *317:51 0.00577049
20 *317:41 0.0403984
21 *317:39 0.0394695
22 *317:31 0.0222116
23 *317:29 0.0233655
24 *317:19 0.0114081
25 *317:17 0.0106757
26 *317:17 *363:17 0.00159105
27 *317:19 *318:11 0.000159843
28 *317:19 *322:27 0.000615678
29 *317:19 *326:11 0.0479277
30 *317:19 *351:17 0.00655386
31 *317:31 *320:15 0.0257224
32 *317:31 *331:15 0
33 *317:31 *363:25 8.63143e-05
34 *317:67 la_data_out[72] 0
35 *317:75 la_data_out[70] 0
36 *317:91 la_data_out[64] 0.00273383
37 *317:97 *318:73 0.00295623
38 *317:115 *318:79 0
39 *317:129 *356:9 0
40 *31:9 *317:31 0.00404555
41 *64:13 *317:19 0.0329888
42 *65:13 *317:29 0.000676849
43 *73:9 *317:125 0.000912563
44 *76:19 *317:41 0
45 *105:9 *317:119 0.00143641
46 *126:11 *317:17 0.000803161
47 *135:11 *317:19 0.00424391
48 *272:11 *317:17 0.00299511
49 *274:11 *317:19 0.00950716
50 *275:11 *317:31 0.0185665
51 *279:9 *317:17 0.000482382
52 *281:11 *317:17 0.000623837
53 *294:9 *317:107 0.000781984
54 *295:31 *317:31 0.0111375
55 *298:23 *317:31 0.00296917
56 *302:9 *317:31 0.0129909
57 *308:11 *317:19 0.00181333
58 *309:37 *317:39 9.77986e-05
59 *309:37 *317:41 0.018731
*RES
1 *537:module_status_flags_out[55] *317:17 15.2513 
2 *317:17 *317:19 84.7869 
3 *317:19 *317:29 6.38807 
4 *317:29 *317:31 703.395 
5 *317:31 *317:39 2.50353 
6 *317:39 *317:41 100.383 
7 *317:41 *317:51 22.1765 
8 *317:51 *317:53 72.555 
9 *317:53 *317:63 42.54 
10 *317:63 *317:67 35.765 
11 *317:67 *317:75 48.115 
12 *317:75 *317:77 72.555 
13 *317:77 *317:83 43.12 
14 *317:83 *317:91 45.16 
15 *317:91 *317:95 22.805 
16 *317:95 *317:97 119.19 
17 *317:97 *317:107 34.8 
18 *317:107 *317:115 43.345 
19 *317:115 *317:119 35.57 
20 *317:119 *317:125 48.665 
21 *317:125 *317:127 2 
22 *317:127 *317:129 85.275 
23 *317:129 *317:135 14.8 
24 *317:135 la_data_out[55] 45.57 
*END

*D_NET *318 0.42158
*CONN
*P la_data_out[56] O
*I *537:module_status_flags_out[56] O *D phase_099_top_integration
*CAP
1 la_data_out[56] 0.00337792
2 *537:module_status_flags_out[56] 0.000225766
3 *318:93 0.0077208
4 *318:79 0.0140863
5 *318:77 0.0121784
6 *318:73 0.00427257
7 *318:69 0.00555079
8 *318:55 0.0127118
9 *318:53 0.0181577
10 *318:41 0.0152413
11 *318:31 0.0206529
12 *318:29 0.0148975
13 *318:23 0.0200092
14 *318:21 0.0206947
15 *318:11 0.00793473
16 *318:9 0.00714826
17 la_data_out[56] *356:9 0.0021288
18 *318:11 *344:11 0.003168
19 *318:11 *346:13 0.0139988
20 *318:11 *352:21 0.00527979
21 *318:21 *321:20 0.000732817
22 *318:21 *338:18 0.000258101
23 *318:21 *338:28 0.000106082
24 *318:21 *340:16 0.000131382
25 *318:23 *329:15 0
26 *318:23 *337:9 0.047721
27 *318:31 *319:9 0.00444872
28 *318:31 *325:22 0
29 *318:31 *338:38 0
30 *318:55 *354:9 0.0109994
31 *318:93 la_data_out[58] 0.00135057
32 *318:93 *328:15 0
33 *318:93 *335:15 0
34 io_oeb[1] *318:77 0
35 *64:13 *318:11 0.0116152
36 *65:13 *318:21 9.67464e-06
37 *67:17 *318:21 0.0018597
38 *125:7 *318:9 0
39 *131:9 *318:23 0.00549729
40 *131:13 *318:29 0.000297837
41 *274:11 *318:11 0.00216816
42 *282:9 *318:31 0.00312376
43 *309:95 *318:41 0.00232883
44 *312:9 *318:11 0.0367743
45 *312:13 *318:23 0.0796049
46 *317:19 *318:11 0.000159843
47 *317:97 *318:73 0.00295623
48 *317:115 *318:79 0
*RES
1 *537:module_status_flags_out[56] *318:9 3.395 
2 *318:9 *318:11 54.6921 
3 *318:11 *318:21 8.12633 
4 *318:21 *318:23 890.565 
5 *318:23 *318:29 1.79547 
6 *318:29 *318:31 284.685 
7 *318:31 *318:41 39.889 
8 *318:41 *318:53 37.1413 
9 *318:53 *318:55 222.975 
10 *318:55 *318:69 18.5127 
11 *318:69 *318:73 44.465 
12 *318:73 *318:77 6.71427 
13 *318:77 *318:79 176.055 
14 *318:79 *318:93 36.5231 
15 *318:93 la_data_out[56] 73.4925 
*END

*D_NET *319 0.28467
*CONN
*P la_data_out[57] O
*I *537:module_status_flags_out[57] O *D phase_099_top_integration
*CAP
1 la_data_out[57] 0.0455949
2 *537:module_status_flags_out[57] 0.000511711
3 *319:15 0.0455949
4 *319:13 0.0206246
5 *319:11 0.0206246
6 *319:9 0.0141086
7 *319:7 0.0146203
8 *319:9 *338:38 0.00159592
9 *319:9 *341:15 0
10 *282:9 *319:9 0.00887165
11 *309:15 *319:9 0.0461109
12 *315:15 *319:9 4.73268e-05
13 *316:15 *319:9 0.0619162
14 *318:31 *319:9 0.00444872
*RES
1 *537:module_status_flags_out[57] *319:7 1.42213 
2 *319:7 *319:9 764.085 
3 *319:9 *319:11 0.5 
4 *319:11 *319:13 53.2937 
5 *319:13 *319:15 0.5 
6 *319:15 la_data_out[57] 824.213 
*END

*D_NET *320 0.35924
*CONN
*P la_data_out[58] O
*I *537:module_status_flags_out[58] O *D phase_099_top_integration
*CAP
1 la_data_out[58] 0.0449778
2 *537:module_status_flags_out[58] 0.00333666
3 *320:37 0.0481957
4 *320:21 0.0115681
5 *320:15 0.023114
6 *320:13 0.0181003
7 *320:13 *332:13 0.0138146
8 *320:13 *341:13 0.000109727
9 *320:15 *326:15 0.0172265
10 *320:15 *363:25 0.00126085
11 *320:21 *334:29 0.0156632
12 *320:21 *341:29 0.0050302
13 *320:37 *360:15 0.000207451
14 *31:9 *320:15 2.53191e-06
15 *31:13 *320:13 0.00359963
16 *38:9 *320:37 1.91843e-05
17 *61:9 *320:15 0.00658132
18 *61:19 *320:15 3.29689e-05
19 *76:9 *320:37 1.42367e-05
20 *275:11 *320:15 0.0353278
21 *292:9 *320:13 0.000232999
22 *292:15 *320:15 0
23 *295:17 *320:13 0.00701708
24 *295:19 *320:13 0.00151193
25 *295:31 *320:15 0.00781913
26 *298:15 *320:15 0.0511872
27 *307:19 *320:21 0.0086055
28 *307:19 *320:37 0.00102703
29 *309:37 *320:15 3.98098e-05
30 *312:95 la_data_out[58] 0
31 *315:11 *320:13 0.00113233
32 *315:29 *320:21 0.00541116
33 *315:29 *320:37 0
34 *317:31 *320:15 0.0257224
35 *318:93 la_data_out[58] 0.00135057
*RES
1 *537:module_status_flags_out[58] *320:13 31.6509 
2 *320:13 *320:15 905.865 
3 *320:15 *320:21 49.3414 
4 *320:21 *320:37 49.8526 
5 *320:37 la_data_out[58] 821.602 
*END

*D_NET *321 0.441087
*CONN
*P la_data_out[59] O
*I *537:module_status_flags_out[59] O *D phase_099_top_integration
*CAP
1 la_data_out[59] 0.0321181
2 *537:module_status_flags_out[59] 0.00997178
3 *321:28 0.0321181
4 *321:26 0.00979827
5 *321:24 0.00979827
6 *321:22 0.0125657
7 *321:20 0.0225375
8 la_data_out[59] *335:9 0.0676373
9 *321:20 *325:18 0.0166366
10 *321:20 *338:18 0.000623707
11 *321:20 *338:28 0.000216289
12 *321:22 la_data_out[81] 0.0806865
13 *321:22 *337:9 0.000276834
14 *321:26 *327:15 0.00863672
15 *321:26 *336:15 0.00227304
16 *321:26 *359:13 0.00112083
17 *321:26 *361:13 0.0144474
18 *65:13 *321:20 0.000110339
19 *67:17 *321:20 0.0127687
20 *76:9 *321:26 0
21 *131:9 *321:22 0.00763735
22 *284:13 *321:26 0.00312984
23 *305:13 *321:26 0.0114528
24 *311:15 *321:26 0.00377556
25 *312:13 *321:22 0.0800165
26 *312:27 *321:26 0
27 *318:21 *321:20 0.000732817
*RES
1 *537:module_status_flags_out[59] *321:20 49.4766 
2 *321:20 *321:22 902.805 
3 *321:22 *321:24 0.5 
4 *321:24 *321:26 49.5064 
5 *321:26 *321:28 0.5 
6 *321:28 la_data_out[59] 861.443 
*END

*D_NET *322 0.480829
*CONN
*P la_data_out[5] O
*P wbs_dat_o[5] O
*I *537:module_status_flags_out[5] O *D phase_099_top_integration
*CAP
1 la_data_out[5] 0.000637315
2 wbs_dat_o[5] 0.000553987
3 *537:module_status_flags_out[5] 0.000598443
4 *322:35 0.00748812
5 *322:33 0.00757145
6 *322:31 0.0969884
7 *322:29 0.0969884
8 *322:27 0.0120557
9 *322:25 0.0121996
10 *322:19 0.00788064
11 *322:17 0.00777316
12 *322:11 0.00129582
13 *322:9 0.00185787
14 la_data_out[5] *333:37 0.00023422
15 la_data_out[5] *344:29 0.000223959
16 *322:27 *344:19 0.00216149
17 *322:35 *333:37 0.044069
18 *322:35 *344:29 0.0425991
19 wbs_dat_o[10] *322:35 0.000224757
20 wbs_dat_o[11] *322:35 0.000314132
21 wbs_dat_o[12] *322:35 0.000863348
22 wbs_dat_o[13] *322:35 0.000513964
23 wbs_dat_o[16] *322:35 0.00205723
24 wbs_dat_o[17] *322:35 0.000538029
25 wbs_dat_o[27] *322:35 0.00139043
26 *537:rf_adc_i_in[3] *322:25 0.000252118
27 *30:21 *322:11 0.00990652
28 *41:21 *322:11 0.00990652
29 *62:19 *322:17 0.000114492
30 *113:7 *322:17 0.000116165
31 *134:27 *322:35 0.000337951
32 *135:11 *322:27 0.00595191
33 *135:37 *322:35 0.000523866
34 *136:43 *322:35 0.000751232
35 *227:7 *322:31 0
36 *272:11 *322:19 0.00923727
37 *274:11 *322:27 0.0450786
38 *278:23 *322:35 0.000211635
39 *281:11 *322:19 0.0234196
40 *287:29 *322:35 0.00186885
41 *308:11 *322:27 0.0234585
42 *317:19 *322:27 0.000615678
*RES
1 *537:module_status_flags_out[5] *322:9 10.4675 
2 *322:9 *322:11 89.805 
3 *322:11 *322:17 5.38 
4 *322:17 *322:19 212.28 
5 *322:19 *322:25 5.5375 
6 *322:25 *322:27 82.6601 
7 *322:27 *322:29 0.5 
8 *322:29 *322:31 1761.26 
9 *322:31 *322:33 2 
10 *322:33 *322:35 419.28 
11 *322:35 wbs_dat_o[5] 11.615 
12 *322:33 la_data_out[5] 13.79 
*END

*D_NET *323 0.565321
*CONN
*P la_data_out[60] O
*I *537:module_status_flags_out[60] O *D phase_099_top_integration
*CAP
1 la_data_out[60] 0.00149583
2 *537:module_status_flags_out[60] 0.000824764
3 *323:31 0.00740402
4 *323:25 0.0323515
5 *323:23 0.0288534
6 *323:13 0.016696
7 *323:11 0.0151106
8 *323:13 *329:11 0.00192147
9 *323:13 *331:13 0.0218199
10 *323:13 *334:13 0.00154147
11 *323:23 *340:6 0.00459352
12 *323:23 *345:13 0.00531071
13 *323:25 la_data_out[81] 0.0435707
14 *323:25 *325:22 0.155524
15 *323:25 *334:15 0
16 *323:25 *338:30 0.00672383
17 *323:31 *358:13 0.0307378
18 *31:13 *323:13 0.0188953
19 *66:13 *323:23 0.000884899
20 *75:9 *323:31 0.0307378
21 *114:15 *323:13 0
22 *119:11 *323:13 0
23 *120:11 *323:13 0
24 *121:11 *323:13 0
25 *129:13 *323:13 0.0289
26 *131:9 *323:25 0.00787201
27 *132:13 *323:13 0.0220313
28 *290:9 *323:11 0
29 *304:15 *323:25 0.081019
30 *312:9 *323:23 0.000500635
*RES
1 *537:module_status_flags_out[60] *323:11 12.86 
2 *323:11 *323:13 88.7199 
3 *323:13 *323:23 21.5153 
4 *323:23 *323:25 1745.32 
5 *323:25 *323:31 48.0592 
6 *323:31 la_data_out[60] 23.0025 
*END

*D_NET *324 0.146723
*CONN
*P la_data_out[61] O
*I *537:module_status_flags_out[61] O *D phase_099_top_integration
*CAP
1 la_data_out[61] 0.00118255
2 *537:module_status_flags_out[61] 7.52283e-05
3 *324:13 0.0124198
4 *324:11 0.0112372
5 *324:9 0.0469034
6 *324:7 0.0469786
7 *324:13 *349:13 0.0140495
8 *324:13 *350:13 0.0125085
9 la_data_out[39] *324:13 0.000104838
10 *194:9 *324:13 0.00126352
11 *205:9 *324:13 0
12 *205:15 *324:13 0
13 *227:9 *324:13 0
14 *308:125 *324:9 0
15 *309:149 *324:13 0
*RES
1 *537:module_status_flags_out[61] *324:7 1.35 
2 *324:7 *324:9 850.275 
3 *324:9 *324:11 0.5 
4 *324:11 *324:13 50.2056 
5 *324:13 la_data_out[61] 18.4025 
*END

*D_NET *325 0.488285
*CONN
*P la_data_out[62] O
*I *537:module_status_flags_out[62] O *D phase_099_top_integration
*CAP
1 la_data_out[62] 0.00155642
2 *537:module_status_flags_out[62] 0.00106909
3 *325:28 0.00741253
4 *325:22 0.0661348
5 *325:20 0.0602787
6 *325:18 0.0176327
7 *325:16 0.0187018
8 *325:22 *334:15 0
9 *325:22 *338:30 0.00672383
10 *325:28 *326:21 0.0254059
11 *325:28 *358:13 0.0277747
12 *65:13 *325:18 0.0460477
13 *67:17 *325:18 0.000668356
14 *127:16 *325:18 0.0240172
15 *130:8 *325:18 0.00103128
16 *130:10 *325:16 0.00252179
17 *131:9 *325:22 0.00787201
18 *282:9 *325:22 0
19 *294:9 la_data_out[62] 0
20 *299:17 *325:16 0.00127536
21 *312:27 *325:22 0
22 *318:31 *325:22 0
23 *321:20 *325:18 0.0166366
24 *323:25 *325:22 0.155524
*RES
1 *537:module_status_flags_out[62] *325:16 6.48307 
2 *325:16 *325:18 95.7993 
3 *325:18 *325:20 0.5 
4 *325:20 *325:22 1740.22 
5 *325:22 *325:28 43.5144 
6 *325:28 la_data_out[62] 24.0225 
*END

*D_NET *326 0.47856
*CONN
*P la_data_out[63] O
*I *537:module_status_flags_out[63] O *D phase_099_top_integration
*CAP
1 la_data_out[63] 0.00159306
2 *537:module_status_flags_out[63] 0.00035819
3 *326:21 0.0118717
4 *326:15 0.0523913
5 *326:13 0.0421127
6 *326:11 0.0137899
7 *326:9 0.0141481
8 *326:9 *351:17 0
9 *326:11 *330:13 0
10 *326:15 *331:15 0
11 *326:15 *345:15 0.15596
12 *537:rf_adc_i_in[6] *326:9 0
13 *64:13 *326:11 0.0011256
14 *135:11 *326:11 0.00503818
15 *136:11 *326:11 0.0109856
16 *275:11 *326:15 0.000942279
17 *292:15 *326:15 0.000127843
18 *293:9 *326:15 0
19 *295:29 *326:11 5.40381e-05
20 *295:31 *326:15 0.0264852
21 *298:15 *326:15 0.0509753
22 *302:9 *326:15 0
23 *309:37 *326:15 4.11715e-05
24 *317:19 *326:11 0.0479277
25 *320:15 *326:15 0.0172265
26 *325:28 *326:21 0.0254059
*RES
1 *537:module_status_flags_out[63] *326:9 5.435 
2 *326:9 *326:11 74.1532 
3 *326:11 *326:13 0.5 
4 *326:13 *326:15 1747.36 
5 *326:15 *326:21 39.8436 
6 *326:21 la_data_out[63] 24.5325 
*END

*D_NET *327 0.117779
*CONN
*P la_data_out[64] O
*I *537:module_status_flags_out[64] O *D phase_099_top_integration
*CAP
1 la_data_out[64] 0.0470488
2 *537:module_status_flags_out[64] 0.00300246
3 *327:15 0.0500512
4 *327:15 la_data_out[70] 0
5 *327:15 *359:13 0.00435517
6 *304:19 *327:15 0.000936771
7 *314:19 *327:15 0.00101402
8 *317:91 la_data_out[64] 0.00273383
9 *321:26 *327:15 0.00863672
*RES
1 *537:module_status_flags_out[64] *327:15 22.8013 
2 *327:15 la_data_out[64] 860.932 
*END

*D_NET *328 0.128404
*CONN
*P la_data_out[65] O
*I *537:module_status_flags_out[65] O *D phase_099_top_integration
*CAP
1 la_data_out[65] 0.00545713
2 *537:module_status_flags_out[65] 8.17048e-05
3 *328:15 0.0214645
4 *328:9 0.0586634
5 *328:7 0.0427377
6 *318:93 *328:15 0
*RES
1 *537:module_status_flags_out[65] *328:7 1.35 
2 *328:7 *328:9 773.775 
3 *328:9 *328:15 40.1932 
4 *328:15 la_data_out[65] 94.4025 
*END

*D_NET *329 0.390211
*CONN
*P la_data_out[66] O
*I *537:module_status_flags_out[66] O *D phase_099_top_integration
*CAP
1 la_data_out[66] 0.000825943
2 *537:module_status_flags_out[66] 0.000615002
3 *329:19 0.0047521
4 *329:17 0.00392616
5 *329:15 0.0786084
6 *329:13 0.0786084
7 *329:11 0.0228135
8 *329:9 0.0234285
9 *329:11 *332:13 0.000107293
10 *329:11 *363:19 0
11 *329:15 *337:9 0
12 *329:15 *355:9 0
13 *329:15 *364:9 0
14 *329:19 la_data_out[80] 0.000345002
15 *329:19 *330:19 0.0190468
16 *329:19 *331:23 4.20099e-05
17 *329:19 *338:42 0.00038863
18 *329:19 *350:21 0
19 *537:rf_adc_i_in[6] *329:11 0.000948129
20 *31:13 *329:11 0.00160572
21 *61:21 *329:11 0.0170132
22 *63:17 *329:15 0
23 *63:21 *329:11 0.000119343
24 *132:13 *329:11 0.00480524
25 *227:17 *329:19 0.00456586
26 *286:9 *329:9 0
27 *291:11 *329:11 0.00210078
28 *295:17 *329:11 0.00207031
29 *295:19 *329:11 0.00623544
30 *295:53 *329:19 0
31 *298:35 *329:19 0.00418837
32 *298:39 *329:19 0.0131071
33 *312:13 *329:15 0
34 *314:15 *329:15 0.0810074
35 *315:11 *329:11 0.000429767
36 *316:11 *329:11 0.0165853
37 *318:23 *329:15 0
38 *323:13 *329:11 0.00192147
*RES
1 *537:module_status_flags_out[66] *329:9 11.1275 
2 *329:9 *329:11 605.925 
3 *329:11 *329:13 2 
4 *329:13 *329:15 1765.21 
5 *329:15 *329:17 2 
6 *329:17 *329:19 203.655 
7 *329:19 la_data_out[66] 13.91 
*END

*D_NET *330 0.444701
*CONN
*P la_data_out[67] O
*I *537:module_status_flags_out[67] O *D phase_099_top_integration
*CAP
1 la_data_out[67] 0.000847548
2 *537:module_status_flags_out[67] 0.0106424
3 *330:19 0.00536292
4 *330:17 0.00451537
5 *330:15 0.0608873
6 *330:13 0.0715297
7 *330:13 *332:13 0.00748769
8 *330:13 *341:13 0.00420624
9 *330:13 *357:11 0.00148937
10 *330:13 *363:19 0.00135053
11 *330:15 *332:15 0.157479
12 *330:15 *345:15 1.26595e-05
13 *330:19 *338:42 0.00892801
14 *330:19 *350:21 0
15 *30:21 *330:13 0.00517031
16 *31:13 *330:13 0.00143514
17 *41:21 *330:13 0.00353213
18 *52:21 *330:13 0.00752276
19 *61:21 *330:13 0.00230568
20 *63:21 *330:13 0.00124502
21 *76:19 *330:15 0.0109231
22 *76:21 *330:15 0.0254211
23 *227:17 *330:19 0.00451722
24 *281:11 *330:13 0.00073683
25 *292:19 *330:19 0
26 *295:29 *330:13 2.59828e-05
27 *295:29 *330:15 8.84155e-05
28 *295:31 *330:15 0.022948
29 *298:11 *330:13 0.00136898
30 *298:33 *330:15 0.000143297
31 *307:11 *330:13 0.00353213
32 *326:11 *330:13 0
33 *329:19 *330:19 0.0190468
*RES
1 *537:module_status_flags_out[67] *330:13 43.7599 
2 *330:13 *330:15 1762.79 
3 *330:15 *330:17 2 
4 *330:17 *330:19 175.365 
5 *330:19 la_data_out[67] 14.165 
*END

*D_NET *331 0.367659
*CONN
*P la_data_out[68] O
*I *537:module_status_flags_out[68] O *D phase_099_top_integration
*CAP
1 la_data_out[68] 0.000735317
2 *537:module_status_flags_out[68] 0.000831909
3 *331:23 0.00422446
4 *331:21 0.00354336
5 *331:15 0.0644719
6 *331:13 0.0734219
7 *331:9 0.00983611
8 *331:9 *345:13 0
9 *331:9 *352:19 9.65453e-05
10 *331:13 *334:13 0.00313665
11 *331:15 *334:15 0
12 *331:15 *338:38 0
13 *331:15 *340:18 0.151577
14 *331:15 *341:15 8.39202e-06
15 *331:23 la_data_out[80] 4.76111e-05
16 *31:9 *331:15 0
17 *114:15 *331:13 0.00493051
18 *249:17 *331:23 0.00414063
19 *295:41 *331:15 0
20 *295:43 *331:23 0.0177717
21 *295:53 *331:23 0.00031042
22 *298:35 *331:23 0.00300325
23 *298:39 *331:23 0.00320766
24 *302:9 *331:15 0
25 *307:15 *331:15 0.000502525
26 *315:15 *331:15 0
27 *317:31 *331:15 0
28 *323:13 *331:13 0.0218199
29 *326:15 *331:15 0
30 *329:19 *331:23 4.20099e-05
*RES
1 *537:module_status_flags_out[68] *331:9 12.92 
2 *331:9 *331:13 42.5483 
3 *331:13 *331:15 1768.28 
4 *331:15 *331:21 2.6825 
5 *331:21 *331:23 166.395 
6 *331:23 la_data_out[68] 12.635 
*END

*D_NET *332 0.476083
*CONN
*P la_data_out[69] O
*I *537:module_status_flags_out[69] O *D phase_099_top_integration
*CAP
1 la_data_out[69] 0.00758632
2 *537:module_status_flags_out[69] 0.00406391
3 *332:15 0.0322188
4 *332:13 0.0286964
5 la_data_out[69] la_data_out[78] 0
6 la_data_out[69] *350:21 0.00157975
7 la_data_out[69] *356:13 0
8 *332:13 *341:13 0.00424478
9 *332:13 *363:19 0.00273806
10 *332:15 *345:15 6.397e-05
11 *31:13 *332:13 0.000153102
12 *61:21 *332:13 0.00123537
13 *63:21 *332:13 0.00251116
14 *76:19 *332:15 0.00601545
15 *76:21 *332:15 0.0142128
16 *205:17 la_data_out[69] 0.016474
17 *292:11 *332:13 0.00280546
18 *292:15 *332:15 0.157443
19 *292:19 la_data_out[69] 0.00184652
20 *292:25 la_data_out[69] 0
21 *295:17 *332:13 0.00174636
22 *295:29 *332:15 3.49259e-05
23 *295:31 *332:15 0.011474
24 *298:33 la_data_out[69] 5.04342e-05
25 *320:13 *332:13 0.0138146
26 *329:11 *332:13 0.000107293
27 *330:13 *332:13 0.00748769
28 *330:15 *332:15 0.157479
*RES
1 *537:module_status_flags_out[69] *332:13 34.8838 
2 *332:13 *332:15 1763.18 
3 *332:15 la_data_out[69] 39.0117 
*END

*D_NET *333 0.381176
*CONN
*P wbs_dat_o[6] O
*P la_data_out[6] O
*I *537:module_status_flags_out[6] O *D phase_099_top_integration
*CAP
1 wbs_dat_o[6] 0.000575592
2 la_data_out[6] 0.000628631
3 *537:module_status_flags_out[6] 0.000546999
4 *333:37 0.00987884
5 *333:35 0.00930325
6 *333:27 0.0970326
7 *333:25 0.102946
8 *333:11 0.0131359
9 *333:9 0.00714093
10 *333:37 *344:29 0.000855576
11 *333:37 *355:41 0.00280116
12 la_data_out[5] *333:37 0.00023422
13 wbs_dat_o[13] *333:37 0.000351957
14 wbs_dat_o[14] *333:37 0.000306242
15 wbs_dat_o[17] *333:37 0.00152799
16 *126:11 *333:11 0.00894267
17 *126:17 *333:25 0.00110243
18 *127:16 *333:25 0
19 *130:10 *333:25 0
20 *134:27 *333:37 0.00038959
21 *277:11 *333:11 0.0227736
22 *277:41 *333:37 0.0082987
23 *281:11 *333:11 0.0228119
24 *285:31 *333:37 0.0212094
25 *286:15 *333:25 0.000793135
26 *287:29 *333:37 0.00351361
27 *291:11 *333:11 6.3124e-06
28 *322:35 *333:37 0.044069
*RES
1 *537:module_status_flags_out[6] *333:9 9.9575 
2 *333:9 *333:11 345.105 
3 *333:11 *333:25 33.1527 
4 *333:25 *333:27 1750.81 
5 *333:27 la_data_out[6] 9.87 
6 *333:27 *333:35 2 
7 *333:35 *333:37 421.35 
8 *333:37 wbs_dat_o[6] 11.87 
*END

*D_NET *334 0.29077
*CONN
*P la_data_out[70] O
*I *537:module_status_flags_out[70] O *D phase_099_top_integration
*CAP
1 la_data_out[70] 0.0480706
2 *537:module_status_flags_out[70] 0.00276835
3 *334:29 0.0518943
4 *334:15 0.0379208
5 *334:13 0.0368654
6 *334:13 *341:13 5.51779e-05
7 *334:15 la_data_out[81] 0
8 *334:15 *338:30 0.017519
9 *334:29 *338:36 0.000217803
10 *334:29 *341:29 0.000195282
11 *31:13 *334:13 0.00707219
12 *38:9 *334:29 1.91769e-05
13 *76:9 *334:29 1.42293e-05
14 *282:9 *334:15 0.0347071
15 *298:9 *334:13 0
16 *309:15 *334:15 0.0250831
17 *312:27 *334:29 6.32637e-06
18 *315:21 *334:29 0.00476938
19 *315:29 *334:29 0.00325043
20 *316:15 *334:15 0
21 *317:75 la_data_out[70] 0
22 *320:21 *334:29 0.0156632
23 *323:13 *334:13 0.00154147
24 *323:25 *334:15 0
25 *325:22 *334:15 0
26 *327:15 la_data_out[70] 0
27 *331:13 *334:13 0.00313665
28 *331:15 *334:15 0
*RES
1 *537:module_status_flags_out[70] *334:13 23.7463 
2 *334:13 *334:15 906.885 
3 *334:15 *334:29 27.1003 
4 *334:29 la_data_out[70] 867.052 
*END

*D_NET *335 0.153719
*CONN
*P la_data_out[71] O
*I *537:module_status_flags_out[71] O *D phase_099_top_integration
*CAP
1 la_data_out[71] 0.00605747
2 *537:module_status_flags_out[71] 8.17048e-05
3 *335:15 0.0164544
4 *335:9 0.0369018
5 *335:7 0.0265866
6 la_data_out[59] *335:9 0.0676373
7 *318:93 *335:15 0
*RES
1 *537:module_status_flags_out[71] *335:7 1.35 
2 *335:7 *335:9 763.575 
3 *335:9 *335:15 28.0737 
4 *335:15 la_data_out[71] 104.603 
*END

*D_NET *336 0.101592
*CONN
*P la_data_out[72] O
*I *537:module_status_flags_out[72] O *D phase_099_top_integration
*CAP
1 la_data_out[72] 0.0473381
2 *537:module_status_flags_out[72] 0.0013682
3 *336:15 0.0487063
4 *76:9 *336:15 0
5 *309:133 la_data_out[72] 0.0019065
6 *312:29 *336:15 0
7 *317:67 la_data_out[72] 0
8 *321:26 *336:15 0.00227304
*RES
1 *537:module_status_flags_out[72] *336:15 12.0507 
2 *336:15 la_data_out[72] 861.953 
*END

*D_NET *337 0.224158
*CONN
*P la_data_out[73] O
*I *537:module_status_flags_out[73] O *D phase_099_top_integration
*CAP
1 la_data_out[73] 0.0463194
2 *537:module_status_flags_out[73] 0.000752436
3 *337:15 0.0536991
4 *337:9 0.018509
5 *337:7 0.0118818
6 *337:9 la_data_out[81] 0
7 *337:9 *355:9 0.000129637
8 *337:9 *364:9 0.036854
9 *111:5 *337:7 0.000196022
10 *112:7 *337:7 0.000196022
11 *131:9 *337:9 0.00549729
12 *275:15 *337:15 0
13 *309:51 *337:15 0
14 *309:113 la_data_out[73] 0.00178473
15 *312:13 *337:9 0.000340324
16 *318:23 *337:9 0.047721
17 *321:22 *337:9 0.000276834
18 *329:15 *337:9 0
*RES
1 *537:module_status_flags_out[73] *337:7 2.29613 
2 *337:7 *337:9 560.085 
3 *337:9 *337:15 19.2172 
4 *337:15 la_data_out[73] 849.713 
*END

*D_NET *338 0.417999
*CONN
*P la_data_out[74] O
*I *537:module_status_flags_out[74] O *D phase_099_top_integration
*CAP
1 la_data_out[74] 0.000866969
2 *537:module_status_flags_out[74] 0.005458
3 *338:42 0.00276737
4 *338:40 0.0019004
5 *338:38 0.0362594
6 *338:36 0.0363971
7 *338:30 0.0625933
8 *338:28 0.0626107
9 *338:18 0.0179877
10 *338:16 0.0232905
11 *338:16 *340:6 0.00744519
12 *338:16 *353:11 0.0011224
13 *338:18 *353:11 0
14 *338:28 *341:15 0.000126758
15 *338:38 *340:18 0.0292324
16 *338:38 *341:15 0.000138702
17 *338:42 *340:22 0.00659934
18 *338:42 *350:21 0
19 *537:rf_adc_i_in[9] *338:16 0.000135708
20 *67:17 *338:18 0.0166615
21 *130:8 *338:18 0.00138891
22 *130:10 *338:16 0.000673585
23 *131:9 *338:30 0.014138
24 *140:15 *338:30 0
25 *205:17 *338:42 0.00195192
26 *274:11 *338:16 0.000715902
27 *282:9 *338:30 0.00787201
28 *292:19 *338:42 0
29 *299:15 *338:16 0.00236134
30 *299:17 *338:16 0.000641347
31 *304:15 *338:30 0.00672383
32 *307:15 *338:38 7.25022e-05
33 *312:9 *338:16 0.00465976
34 *314:11 *338:18 0.0217088
35 *315:15 *338:28 0.000125643
36 *315:21 *338:36 5.82798e-05
37 *316:19 *338:36 1.26484e-05
38 *318:21 *338:18 0.000258101
39 *318:21 *338:28 0.000106082
40 *318:31 *338:38 0
41 *319:9 *338:38 0.00159592
42 *321:20 *338:18 0.000623707
43 *321:20 *338:28 0.000216289
44 *323:25 *338:30 0.00672383
45 *325:22 *338:30 0.00672383
46 *329:19 *338:42 0.00038863
47 *330:19 *338:42 0.00892801
48 *331:15 *338:38 0
49 *334:15 *338:30 0.017519
50 *334:29 *338:36 0.000217803
*RES
1 *537:module_status_flags_out[74] *338:16 27.888 
2 *338:16 *338:18 389.955 
3 *338:18 *338:28 4.86597 
4 *338:28 *338:30 150.944 
5 *338:30 *338:36 1.35847 
6 *338:36 *338:38 859.328 
7 *338:38 *338:40 2 
8 *338:40 *338:42 88.425 
9 *338:42 la_data_out[74] 14.42 
*END

*D_NET *339 0.122609
*CONN
*P la_data_out[75] O
*I *537:module_status_flags_out[75] O *D phase_099_top_integration
*CAP
1 la_data_out[75] 0.00305728
2 *537:module_status_flags_out[75] 8.19591e-05
3 *339:9 0.0498932
4 *339:7 0.0469179
5 la_data_out[75] *343:15 0.01133
6 *339:9 *350:19 2.52525e-06
7 *194:9 la_data_out[75] 0.0113266
8 *285:11 *339:7 0
9 *285:11 *339:9 0
*RES
1 *537:module_status_flags_out[75] *339:7 1.35 
2 *339:7 *339:9 848.745 
3 *339:9 la_data_out[75] 37.2513 
*END

*D_NET *340 0.447032
*CONN
*P la_data_out[76] O
*I *537:module_status_flags_out[76] O *D phase_099_top_integration
*CAP
1 la_data_out[76] 0.000888459
2 *537:module_status_flags_out[76] 0
3 *340:22 0.00309066
4 *340:20 0.0022022
5 *340:18 0.0351114
6 *340:16 0.0360605
7 *340:6 0.0135203
8 *340:4 0.0125712
9 *340:6 *345:13 0.011861
10 *340:6 *351:19 0.00059977
11 *340:6 *352:19 0.00146799
12 *340:22 *350:21 0
13 *537:rf_adc_i_in[7] *340:6 0.000554714
14 *65:13 *340:16 0.000253473
15 *66:13 *340:6 0.0434032
16 *127:14 *340:6 0.00198675
17 *130:10 *340:6 0.000798042
18 *205:17 *340:22 0.00143813
19 *292:19 *340:22 0
20 *307:15 *340:18 0.0774902
21 *312:9 *340:6 0.00415523
22 *318:21 *340:16 0.000131382
23 *323:23 *340:6 0.00459352
24 *331:15 *340:18 0.151577
25 *338:16 *340:6 0.00744519
26 *338:38 *340:18 0.0292324
27 *338:42 *340:22 0.00659934
*RES
1 *537:module_status_flags_out[76] *340:4 0.5 
2 *340:4 *340:6 75.2311 
3 *340:6 *340:16 19.6125 
4 *340:16 *340:18 1750.94 
5 *340:18 *340:20 2 
6 *340:20 *340:22 60.825 
7 *340:22 la_data_out[76] 14.675 
*END

*D_NET *341 0.281454
*CONN
*P la_data_out[77] O
*I *537:module_status_flags_out[77] O *D phase_099_top_integration
*CAP
1 la_data_out[77] 0.0480728
2 *537:module_status_flags_out[77] 0.00179709
3 *341:29 0.049726
4 *341:15 0.02032
5 *341:13 0.0204638
6 *341:13 *357:9 0
7 *341:13 *363:19 0.000887267
8 *31:13 *341:13 2.91013e-05
9 *38:9 *341:29 2.79351e-05
10 *61:19 *341:13 5.88886e-05
11 *63:21 *341:13 0.000975624
12 *64:13 *341:13 0
13 *295:29 *341:13 7.61315e-05
14 *307:15 *341:15 0.0783128
15 *307:19 *341:29 0.00219486
16 *312:27 *341:29 2.38558e-05
17 *315:15 *341:15 0.0443729
18 *319:9 *341:15 0
19 *320:13 *341:13 0.000109727
20 *320:21 *341:29 0.0050302
21 *330:13 *341:13 0.00420624
22 *331:15 *341:15 8.39202e-06
23 *332:13 *341:13 0.00424478
24 *334:13 *341:13 5.51779e-05
25 *334:29 *341:29 0.000195282
26 *338:28 *341:15 0.000126758
27 *338:38 *341:15 0.000138702
*RES
1 *537:module_status_flags_out[77] *341:13 16.4231 
2 *341:13 *341:15 905.355 
3 *341:15 *341:29 10.7881 
4 *341:29 la_data_out[77] 867.052 
*END

*D_NET *342 0.125686
*CONN
*P la_data_out[78] O
*I *537:module_status_flags_out[78] O *D phase_099_top_integration
*CAP
1 la_data_out[78] 0.00733733
2 *537:module_status_flags_out[78] 8.17048e-05
3 *342:9 0.0534556
4 *342:7 0.0461999
5 la_data_out[78] *356:13 0.0163816
6 *342:7 *359:11 0
7 *342:9 *359:11 0
8 la_data_out[69] la_data_out[78] 0
9 *205:17 la_data_out[78] 0
10 *285:11 *342:7 0
11 *285:11 *342:9 0
12 *309:149 la_data_out[78] 4.67249e-05
13 *312:61 *342:9 0.00218358
*RES
1 *537:module_status_flags_out[78] *342:7 1.35 
2 *342:7 *342:9 851.805 
3 *342:9 la_data_out[78] 41.7077 
*END

*D_NET *343 0.146813
*CONN
*P la_data_out[79] O
*I *537:module_status_flags_out[79] O *D phase_099_top_integration
*CAP
1 la_data_out[79] 0.00127618
2 *537:module_status_flags_out[79] 8.17048e-05
3 *343:15 0.00493899
4 *343:9 0.0505451
5 *343:7 0.046964
6 *343:15 *348:15 0.0198363
7 *343:15 *349:13 0.000973194
8 *343:15 *350:13 0.00458697
9 la_data_out[75] *343:15 0.01133
10 *194:9 *343:15 0.00355211
11 *309:139 *343:15 0.0027288
*RES
1 *537:module_status_flags_out[79] *343:7 1.35 
2 *343:7 *343:9 849.255 
3 *343:9 *343:15 33.7256 
4 *343:15 la_data_out[79] 18.9225 
*END

*D_NET *344 0.438202
*CONN
*P la_data_out[7] O
*P wbs_dat_o[7] O
*I *537:module_status_flags_out[7] O *D phase_099_top_integration
*CAP
1 la_data_out[7] 0.000595278
2 wbs_dat_o[7] 0.000544391
3 *537:module_status_flags_out[7] 0.000289683
4 *344:29 0.0107337
5 *344:27 0.010838
6 *344:23 0.0969599
7 *344:21 0.0969065
8 *344:19 0.0172624
9 *344:17 0.0173634
10 *344:11 0.0117823
11 *344:9 0.0119709
12 *344:11 *351:19 0.00280198
13 *344:11 *352:21 0.006304
14 *344:11 *353:11 0.000194233
15 *344:11 *362:9 0.00201615
16 *344:19 *353:11 0.00650654
17 la_data_out[5] *344:29 0.000223959
18 wbs_dat_o[10] *344:29 0.000482065
19 wbs_dat_o[11] *344:29 0.000682189
20 wbs_dat_o[12] *344:29 0.00155472
21 wbs_dat_o[13] *344:29 0.000543899
22 wbs_dat_o[16] *344:29 0.00178993
23 wbs_dat_o[17] *344:29 0.000583983
24 wbs_dat_o[27] *344:29 0.00126748
25 *537:rf_adc_i_in[2] *344:17 0
26 *62:13 *344:11 0.00425214
27 *103:5 *344:23 0
28 *130:10 *344:19 0
29 *134:27 *344:29 0.000911908
30 *136:43 *344:29 0.00058005
31 *272:27 *344:29 0
32 *274:11 *344:11 0.00362652
33 *274:11 *344:19 0.0186693
34 *275:29 *344:29 0
35 *277:33 *344:27 0.000262027
36 *277:33 *344:29 0.0258865
37 *278:23 *344:29 0.000229571
38 *281:9 *344:9 0
39 *285:31 *344:27 0.000108453
40 *285:31 *344:29 0.000579186
41 *287:29 *344:29 0.002913
42 *296:9 *344:11 0.000335245
43 *296:9 *344:19 0.00617413
44 *299:17 *344:19 0.0158081
45 *309:11 *344:11 0.00888433
46 *318:11 *344:11 0.003168
47 *322:27 *344:19 0.00216149
48 *322:35 *344:29 0.0425991
49 *333:37 *344:29 0.000855576
*RES
1 *537:module_status_flags_out[7] *344:9 5.6225 
2 *344:9 *344:11 331.305 
3 *344:11 *344:17 4.0075 
4 *344:17 *344:19 76.5421 
5 *344:19 *344:21 0.5 
6 *344:21 *344:23 1759.48 
7 *344:23 *344:27 4.52 
8 *344:27 *344:29 421.005 
9 *344:29 wbs_dat_o[7] 11.36 
10 *344:27 la_data_out[7] 11.36 
*END

*D_NET *345 0.456994
*CONN
*P la_data_out[80] O
*I *537:module_status_flags_out[80] O *D phase_099_top_integration
*CAP
1 la_data_out[80] 0.000870059
2 *537:module_status_flags_out[80] 0.00684855
3 *345:15 0.025594
4 *345:13 0.0315725
5 *345:13 *353:11 0.00534882
6 *345:13 *362:9 0.00584318
7 *76:19 *345:15 0.00542314
8 *292:15 *345:15 0.156851
9 *295:31 *345:15 0.0171295
10 *295:41 *345:15 7.34742e-05
11 *298:35 la_data_out[80] 0.000196699
12 *312:9 *345:13 0.0276423
13 *323:23 *345:13 0.00531071
14 *326:15 *345:15 0.15596
15 *329:19 la_data_out[80] 0.000345002
16 *330:15 *345:15 1.26595e-05
17 *331:9 *345:13 0
18 *331:23 la_data_out[80] 4.76111e-05
19 *332:15 *345:15 6.397e-05
20 *340:6 *345:13 0.011861
*RES
1 *537:module_status_flags_out[80] *345:13 43.9327 
2 *345:13 *345:15 1757.18 
3 *345:15 la_data_out[80] 18.865 
*END

*D_NET *346 0.341129
*CONN
*P la_data_out[81] O
*I *537:module_status_flags_out[81] O *D phase_099_top_integration
*CAP
1 la_data_out[81] 0.0451993
2 *537:module_status_flags_out[81] 0.0030606
3 *346:13 0.0482599
4 la_data_out[81] *364:9 0
5 *346:13 *352:21 0.000130654
6 *64:13 *346:13 0.0157814
7 *131:9 la_data_out[81] 0.00820691
8 *304:15 la_data_out[81] 0.0810248
9 *312:9 *346:13 0.000976358
10 *312:13 la_data_out[81] 0.000232928
11 *318:11 *346:13 0.0139988
12 *321:22 la_data_out[81] 0.0806865
13 *323:25 la_data_out[81] 0.0435707
14 *334:15 la_data_out[81] 0
15 *337:9 la_data_out[81] 0
*RES
1 *537:module_status_flags_out[81] *346:13 28.2695 
2 *346:13 la_data_out[81] 1770.26 
*END

*D_NET *347 0.143841
*CONN
*P la_data_out[82] O
*I *537:module_status_flags_out[82] O *D phase_099_top_integration
*CAP
1 la_data_out[82] 0.0701418
2 *537:module_status_flags_out[82] 0.00153244
3 *347:7 0.0716742
4 *30:17 la_data_out[82] 0
5 *138:7 *347:7 0.000492601
*RES
1 *537:module_status_flags_out[82] *347:7 4.33547 
2 *347:7 la_data_out[82] 1271.99 
*END

*D_NET *348 0.153277
*CONN
*P la_data_out[83] O
*I *537:module_status_flags_out[83] O *D phase_099_top_integration
*CAP
1 la_data_out[83] 0.00120421
2 *537:module_status_flags_out[83] 8.17048e-05
3 *348:15 0.00570821
4 *348:9 0.0514072
5 *348:7 0.0469849
6 *348:15 *349:13 0.000315096
7 *348:15 *354:13 0.025276
8 *194:9 *348:15 0.00246359
9 *343:15 *348:15 0.0198363
*RES
1 *537:module_status_flags_out[83] *348:7 1.35 
2 *348:7 *348:9 849.765 
3 *348:9 *348:15 39.4357 
4 *348:15 la_data_out[83] 18.4125 
*END

*D_NET *349 0.201269
*CONN
*P la_data_out[84] O
*I *537:module_status_flags_out[84] O *D phase_099_top_integration
*CAP
1 la_data_out[84] 0.00113507
2 *537:module_status_flags_out[84] 7.84666e-05
3 *349:13 0.0104899
4 *349:11 0.00935485
5 *349:9 0.0469624
6 *349:7 0.0470409
7 *349:13 *350:13 0.00160949
8 *349:13 *354:13 0.0268054
9 *349:13 *356:13 0.0424544
10 la_data_out[52] *349:9 0
11 *309:149 *349:13 0
12 *324:13 *349:13 0.0140495
13 *343:15 *349:13 0.000973194
14 *348:15 *349:13 0.000315096
*RES
1 *537:module_status_flags_out[84] *349:7 1.35 
2 *349:7 *349:9 850.785 
3 *349:9 *349:11 0.5 
4 *349:11 *349:13 72.5217 
5 *349:13 la_data_out[84] 17.8925 
*END

*D_NET *350 0.209347
*CONN
*P la_data_out[85] O
*I *537:module_status_flags_out[85] O *D phase_099_top_integration
*CAP
1 la_data_out[85] 0.000961833
2 *537:module_status_flags_out[85] 7.52283e-05
3 *350:21 0.0112257
4 *350:19 0.0105936
5 *350:13 0.00831397
6 *350:11 0.00798417
7 *350:9 0.0468237
8 *350:7 0.0468989
9 la_data_out[69] *350:21 0.00157975
10 *194:9 *350:13 0.0394847
11 *292:19 *350:21 0.0166982
12 *309:145 *350:19 0
13 *324:13 *350:13 0.0125085
14 *329:19 *350:21 0
15 *330:19 *350:21 0
16 *338:42 *350:21 0
17 *339:9 *350:19 2.52525e-06
18 *340:22 *350:21 0
19 *343:15 *350:13 0.00458697
20 *349:13 *350:13 0.00160949
*RES
1 *537:module_status_flags_out[85] *350:7 1.35 
2 *350:7 *350:9 848.745 
3 *350:9 *350:11 0.5 
4 *350:11 *350:13 58.596 
5 *350:13 *350:19 7.5775 
6 *350:19 *350:21 233.325 
7 *350:21 la_data_out[85] 16.46 
*END

*D_NET *351 0.34276
*CONN
*P la_data_out[86] O
*I *537:module_status_flags_out[86] O *D phase_099_top_integration
*CAP
1 la_data_out[86] 0.0975588
2 *537:module_status_flags_out[86] 0.0013549
3 *351:21 0.0975588
4 *351:19 0.00786957
5 *351:17 0.00922447
6 *351:17 *362:7 0
7 *351:19 *352:21 0.00460755
8 *351:19 *362:9 0.0571107
9 *64:13 *351:19 0.0005189
10 *274:11 *351:17 0.00655386
11 *291:9 *351:17 0
12 *309:11 *351:19 0.0426474
13 *312:9 *351:19 0.00779926
14 *317:19 *351:17 0.00655386
15 *326:9 *351:17 0
16 *340:6 *351:19 0.00059977
17 *344:11 *351:19 0.00280198
*RES
1 *537:module_status_flags_out[86] *351:17 18.4778 
2 *351:17 *351:19 517.95 
3 *351:19 *351:21 2 
4 *351:21 la_data_out[86] 1769.37 
*END

*D_NET *352 0.271611
*CONN
*P la_data_out[87] O
*I *537:module_status_flags_out[87] O *D phase_099_top_integration
*CAP
1 la_data_out[87] 0.0975869
2 *537:module_status_flags_out[87] 0.000972867
3 *352:23 0.0975869
4 *352:21 0.00940024
5 *352:19 0.0103731
6 *352:19 *353:11 0.000581585
7 *352:19 *362:9 0.000634509
8 *352:21 *362:9 0.000603197
9 *62:13 *352:21 0.00389384
10 *64:13 *352:21 0.00162258
11 *309:11 *352:21 0.0277112
12 *312:9 *352:19 0.00275759
13 *318:11 *352:21 0.00527979
14 *331:9 *352:19 9.65453e-05
15 *340:6 *352:19 0.00146799
16 *344:11 *352:21 0.006304
17 *346:13 *352:21 0.000130654
18 *351:19 *352:21 0.00460755
*RES
1 *537:module_status_flags_out[87] *352:19 11.0392 
2 *352:19 *352:21 334.41 
3 *352:21 *352:23 2 
4 *352:23 la_data_out[87] 1769.88 
*END

*D_NET *353 0.353855
*CONN
*P la_data_out[88] O
*I *537:module_status_flags_out[88] O *D phase_099_top_integration
*CAP
1 la_data_out[88] 0.0975148
2 *537:module_status_flags_out[88] 0.000153345
3 *353:13 0.0975148
4 *353:11 0.0276861
5 *353:9 0.0278394
6 *353:11 *362:9 0.0659876
7 *66:13 *353:11 0.000229793
8 *296:9 *353:11 0.0166336
9 *299:15 *353:11 0.000439362
10 *304:11 *353:11 0
11 *312:9 *353:11 0.00610274
12 *314:11 *353:11 0
13 *338:16 *353:11 0.0011224
14 *338:18 *353:11 0
15 *344:11 *353:11 0.000194233
16 *344:19 *353:11 0.00650654
17 *345:13 *353:11 0.00534882
18 *352:19 *353:11 0.000581585
*RES
1 *537:module_status_flags_out[88] *353:9 4.3475 
2 *353:9 *353:11 763.59 
3 *353:11 *353:13 2 
4 *353:13 la_data_out[88] 1768.86 
*END

*D_NET *354 0.175285
*CONN
*P la_data_out[89] O
*I *537:module_status_flags_out[89] O *D phase_099_top_integration
*CAP
1 la_data_out[89] 0.00115859
2 *537:module_status_flags_out[89] 8.22867e-05
3 *354:13 0.00735951
4 *354:11 0.00620092
5 *354:9 0.045025
6 *354:7 0.0451073
7 *354:13 *356:13 0.00438305
8 *194:9 *354:13 0.00288697
9 *318:55 *354:9 0.0109994
10 *348:15 *354:13 0.025276
11 *349:13 *354:13 0.0268054
*RES
1 *537:module_status_flags_out[89] *354:7 1.35 
2 *354:7 *354:9 850.275 
3 *354:9 *354:11 0.5 
4 *354:11 *354:13 51.0796 
5 *354:13 la_data_out[89] 18.4025 
*END

*D_NET *355 0.385063
*CONN
*P wbs_dat_o[8] O
*P la_data_out[8] O
*I *537:module_status_flags_out[8] O *D phase_099_top_integration
*CAP
1 wbs_dat_o[8] 0.000642306
2 la_data_out[8] 0.000805698
3 *537:module_status_flags_out[8] 0.000893228
4 *355:41 0.00755192
5 *355:31 0.0132915
6 *355:29 0.00638193
7 *355:21 0.00361108
8 *355:17 0.0442518
9 *355:15 0.0414464
10 *355:13 0.0631516
11 *355:11 0.0631516
12 *355:9 0.0155104
13 *355:7 0.0164036
14 *355:7 *364:7 0.000199726
15 *355:9 *364:9 0.0400761
16 *355:31 *364:23 0.0166749
17 *355:41 *364:33 0.0264633
18 wbs_dat_o[10] *355:41 0.000492462
19 wbs_dat_o[11] *355:41 0.00127136
20 wbs_dat_o[12] *355:41 0.000221081
21 wbs_dat_o[13] *355:41 0.000789942
22 wbs_dat_o[14] *355:41 0.00622025
23 wbs_dat_o[17] *355:41 0.00485847
24 *134:27 *355:41 0.000550844
25 *136:43 *355:41 0.000482695
26 *275:9 *355:7 3.19339e-05
27 *278:23 *355:41 0.000360766
28 *282:37 la_data_out[8] 0
29 *285:31 *355:31 0
30 *285:31 *355:41 0.00063921
31 *287:29 *355:41 0.00163185
32 *288:31 *355:31 0.00407466
33 *299:71 *355:13 0
34 *329:15 *355:9 0
35 *333:37 *355:41 0.00280116
36 *337:9 *355:9 0.000129637
*RES
1 *537:module_status_flags_out[8] *355:7 2.41267 
2 *355:7 *355:9 450.945 
3 *355:9 *355:11 0.5 
4 *355:11 *355:13 164.467 
5 *355:13 *355:15 0.5 
6 *355:15 *355:17 752.73 
7 *355:17 *355:21 49.6125 
8 *355:21 la_data_out[8] 12.165 
9 *355:21 *355:29 2 
10 *355:29 *355:31 168.81 
11 *355:31 *355:41 47.1967 
12 *355:41 wbs_dat_o[8] 10.7625 
*END

*D_NET *356 0.192556
*CONN
*P la_data_out[90] O
*I *537:module_status_flags_out[90] O *D phase_099_top_integration
*CAP
1 la_data_out[90] 0.00109594
2 *537:module_status_flags_out[90] 7.84666e-05
3 *356:13 0.0155117
4 *356:11 0.0144157
5 *356:9 0.0460781
6 *356:7 0.0461566
7 la_data_out[56] *356:9 0.0021288
8 la_data_out[69] *356:13 0
9 la_data_out[78] *356:13 0.0163816
10 *194:9 *356:13 0
11 *205:17 *356:13 0
12 *298:33 *356:13 0
13 *309:149 *356:13 0.0038718
14 *317:129 *356:9 0
15 *349:13 *356:13 0.0424544
16 *354:13 *356:13 0.00438305
*RES
1 *537:module_status_flags_out[90] *356:7 1.35 
2 *356:7 *356:9 851.295 
3 *356:9 *356:11 0.5 
4 *356:11 *356:13 76.6004 
5 *356:13 la_data_out[90] 17.3825 
*END

*D_NET *357 0.222536
*CONN
*P la_data_out[91] O
*I *537:module_status_flags_out[91] O *D phase_099_top_integration
*CAP
1 la_data_out[91] 0.0977919
2 *537:module_status_flags_out[91] 0.000568267
3 *357:13 0.0977919
4 *357:11 0.00886429
5 *357:9 0.00943256
6 *52:21 *357:11 0.00270494
7 *104:13 la_data_out[91] 0
8 *298:11 *357:11 0.0038924
9 *330:13 *357:11 0.00148937
10 *341:13 *357:9 0
*RES
1 *537:module_status_flags_out[91] *357:9 9.7925 
2 *357:9 *357:11 177.78 
3 *357:11 *357:13 2 
4 *357:13 la_data_out[91] 1773.96 
*END

*D_NET *358 0.244793
*CONN
*P la_data_out[92] O
*I *537:module_status_flags_out[92] O *D phase_099_top_integration
*CAP
1 la_data_out[92] 0.00148018
2 *537:module_status_flags_out[92] 7.73075e-05
3 *358:13 0.0307504
4 *358:11 0.0292703
5 *358:9 0.0483865
6 *358:7 0.0484638
7 io_oeb[37] *358:13 0.000742275
8 *75:9 *358:13 0.0271097
9 *301:7 *358:7 0
10 *301:9 *358:9 0
11 *323:31 *358:13 0.0307378
12 *325:28 *358:13 0.0277747
*RES
1 *537:module_status_flags_out[92] *358:7 1.35 
2 *358:7 *358:9 844.665 
3 *358:9 *358:11 0.5 
4 *358:11 *358:13 123.913 
5 *358:13 la_data_out[92] 24.0125 
*END

*D_NET *359 0.172657
*CONN
*P la_data_out[93] O
*I *537:module_status_flags_out[93] O *D phase_099_top_integration
*CAP
1 la_data_out[93] 0.0475052
2 *537:module_status_flags_out[93] 0.000553412
3 *359:15 0.0475052
4 *359:13 0.0149309
5 *359:11 0.0154843
6 *359:13 *361:13 0.0329459
7 *304:19 *359:13 0.00418281
8 *305:11 *359:11 0
9 *314:19 *359:13 0.00407297
10 *321:26 *359:13 0.00112083
11 *327:15 *359:13 0.00435517
12 *342:7 *359:11 0
13 *342:9 *359:11 0
*RES
1 *537:module_status_flags_out[93] *359:11 9.605 
2 *359:11 *359:13 58.4795 
3 *359:13 *359:15 0.5 
4 *359:15 la_data_out[93] 860.422 
*END

*D_NET *360 0.159227
*CONN
*P la_data_out[94] O
*I *537:module_status_flags_out[94] O *D phase_099_top_integration
*CAP
1 la_data_out[94] 0.00495135
2 *537:module_status_flags_out[94] 0.000573797
3 *360:23 0.00495135
4 *360:21 0.0306224
5 *360:19 0.0306224
6 *360:17 0.0429751
7 *360:15 0.0435489
8 *76:9 *360:15 0.000112351
9 *311:15 *360:15 0.000661862
10 *320:37 *360:15 0.000207451
*RES
1 *537:module_status_flags_out[94] *360:15 8.58353 
2 *360:15 *360:17 779.385 
3 *360:17 *360:19 0.5 
4 *360:19 *360:21 79.6885 
5 *360:21 *360:23 0.5 
6 *360:23 la_data_out[94] 83.6925 
*END

*D_NET *361 0.166381
*CONN
*P la_data_out[95] O
*I *537:module_status_flags_out[95] O *D phase_099_top_integration
*CAP
1 la_data_out[95] 0.0475199
2 *537:module_status_flags_out[95] 0.000502762
3 *361:15 0.0475199
4 *361:13 0.0114713
5 *361:11 0.0119741
6 *321:26 *361:13 0.0144474
7 *359:13 *361:13 0.0329459
*RES
1 *537:module_status_flags_out[95] *361:11 9.095 
2 *361:11 *361:13 53.5851 
3 *361:13 *361:15 0.5 
4 *361:15 la_data_out[95] 860.932 
*END

*D_NET *362 0.36134
*CONN
*P la_data_out[96] O
*I *537:module_status_flags_out[96] O *D phase_099_top_integration
*CAP
1 la_data_out[96] 0.097476
2 *537:module_status_flags_out[96] 6.76281e-05
3 *362:11 0.097476
4 *362:9 0.0153921
5 *362:7 0.0154598
6 *62:13 *362:9 0
7 *66:13 *362:9 0.000229793
8 *312:9 *362:9 0.00304339
9 *344:11 *362:9 0.00201615
10 *345:13 *362:9 0.00584318
11 *351:17 *362:7 0
12 *351:19 *362:9 0.0571107
13 *352:19 *362:9 0.000634509
14 *352:21 *362:9 0.000603197
15 *353:11 *362:9 0.0659876
*RES
1 *537:module_status_flags_out[96] *362:7 2.945 
2 *362:7 *362:9 704.768 
3 *362:9 *362:11 2 
4 *362:11 la_data_out[96] 1769.11 
*END

*D_NET *363 0.362752
*CONN
*P la_data_out[97] O
*I *537:module_status_flags_out[97] O *D phase_099_top_integration
*CAP
1 la_data_out[97] 0.0970047
2 *537:module_status_flags_out[97] 0.00115945
3 *363:29 0.0970047
4 *363:27 0.0130733
5 *363:25 0.013474
6 *363:19 0.00776064
7 *363:17 0.00851942
8 *537:rf_adc_i_in[3] *363:17 0.000652825
9 *537:rf_adc_i_in[4] *363:17 0
10 *537:rf_adc_i_in[6] *363:19 0.0018221
11 *30:21 *363:19 0.0558624
12 *31:9 *363:25 0.000562337
13 *61:19 *363:25 0.000143714
14 *61:21 *363:19 0.00191295
15 *62:21 *363:19 0.000659207
16 *63:21 *363:19 0.0432044
17 *126:11 *363:17 0.00278053
18 *126:11 *363:19 0.00102038
19 *272:11 *363:17 0.000308514
20 *277:11 *363:19 0.000261436
21 *289:11 *363:19 0.000470165
22 *291:11 *363:19 0.00718043
23 *317:17 *363:17 0.00159105
24 *317:31 *363:25 8.63143e-05
25 *320:15 *363:25 0.00126085
26 *329:11 *363:19 0
27 *330:13 *363:19 0.00135053
28 *332:13 *363:19 0.00273806
29 *341:13 *363:19 0.000887267
*RES
1 *537:module_status_flags_out[97] *363:17 15.8542 
2 *363:17 *363:19 510.015 
3 *363:19 *363:25 18.895 
4 *363:25 *363:27 221.595 
5 *363:27 *363:29 2 
6 *363:29 la_data_out[97] 1760.7 
*END

*D_NET *364 0.408259
*CONN
*P la_data_out[9] O
*P wbs_dat_o[9] O
*I *537:module_status_flags_out[9] O *D phase_099_top_integration
*CAP
1 la_data_out[9] 0.000785249
2 wbs_dat_o[9] 0.000676467
3 *537:module_status_flags_out[9] 0.000845883
4 *364:33 0.0103598
5 *364:23 0.0131226
6 *364:21 0.00429347
7 *364:17 0.0434552
8 *364:15 0.0433862
9 *364:13 0.0621206
10 *364:11 0.0621206
11 *364:9 0.00777835
12 *364:7 0.00862424
13 la_data_out[81] *364:9 0
14 *105:5 *364:17 0
15 *131:7 *364:7 0
16 *131:9 *364:9 0.00549729
17 *282:7 *364:7 9.54275e-05
18 *283:23 *364:33 0.00166818
19 *285:31 *364:23 0
20 *286:51 *364:33 0.00162527
21 *287:29 *364:33 0.000549277
22 *288:31 *364:23 0.00348128
23 *288:31 *364:33 0.00313913
24 *289:27 *364:21 0.000186986
25 *289:27 *364:23 0.0135948
26 *290:33 *364:33 0.000210039
27 *291:35 *364:23 0.000374809
28 *299:71 *364:13 0
29 *329:15 *364:9 0
30 *337:9 *364:9 0.036854
31 *355:7 *364:7 0.000199726
32 *355:9 *364:9 0.0400761
33 *355:31 *364:23 0.0166749
34 *355:41 *364:33 0.0264633
*RES
1 *537:module_status_flags_out[9] *364:7 2.3544 
2 *364:7 *364:9 463.695 
3 *364:9 *364:11 0.5 
4 *364:11 *364:13 161.786 
5 *364:13 *364:15 0.5 
6 *364:15 *364:17 786.398 
7 *364:17 *364:21 3.83 
8 *364:21 *364:23 166.74 
9 *364:23 *364:33 46.723 
10 *364:33 wbs_dat_o[9] 11.2725 
11 *364:21 la_data_out[9] 13.91 
*END

*D_NET *455 0.302893
*CONN
*P user_clock2 I
*I *537:clk_2p4g I *D phase_099_top_integration
*CAP
1 user_clock2 0.000659295
2 *537:clk_2p4g 0.00712662
3 *455:17 0.0741341
4 *455:15 0.0670075
5 *455:13 0.0465563
6 *455:11 0.0465563
7 *455:9 0.0106588
8 *455:7 0.0113181
9 *537:rf_adc_q_in[10] *537:clk_2p4g 0
10 *537:rf_adc_q_in[11] *537:clk_2p4g 0.000769866
11 *537:rf_adc_q_in[15] *537:clk_2p4g 0.000116916
12 *273:13 *537:clk_2p4g 0
13 *285:21 *537:clk_2p4g 0.00168707
14 *285:21 *455:17 0.00947241
15 *288:17 *537:clk_2p4g 0
16 *289:21 *537:clk_2p4g 0.0184827
17 *294:23 *455:9 0.00561454
18 *295:53 *455:9 0.00267894
19 *299:21 *537:clk_2p4g 5.32876e-05
20 *304:19 *455:17 0
21 *314:19 *455:17 0
*RES
1 user_clock2 *455:7 13.655 
2 *455:7 *455:9 210.555 
3 *455:9 *455:11 2 
4 *455:11 *455:13 846.45 
5 *455:13 *455:15 2 
6 *455:15 *455:17 1146.19 
7 *455:17 *537:clk_2p4g 44.2723 
*END

*D_NET *464 0.208036
*CONN
*P wb_clk_i I
*I *537:clk_dsp I *D phase_099_top_integration
*CAP
1 wb_clk_i 0.00149517
2 *537:clk_dsp 7.52283e-05
3 *464:13 0.0449202
4 *464:11 0.044845
5 *464:9 0.0547324
6 *464:7 0.0562275
7 io_oeb[37] *464:9 0
8 *86:5 *464:13 0.00323965
9 *90:11 *464:9 0.000470753
10 *134:13 *464:9 0
11 *308:79 *464:13 0.0020296
*RES
1 wb_clk_i *464:7 27.5825 
2 *464:7 *464:9 139.237 
3 *464:9 *464:11 0.5 
4 *464:11 *464:13 841.095 
5 *464:13 *537:clk_dsp 1.35 
*END

*D_NET *466 0.00128922
*CONN
*P wbs_ack_o O
*P wbs_stb_i I
*CAP
1 wbs_ack_o 0.000644611
2 wbs_stb_i 0.000644611
*RES
1 wbs_stb_i wbs_ack_o 15.07 
*END
